&CONTROL
calculation = 'scf'
restart_mode = 'from_scratch'
prefix = 'h-BN'
pseudo_dir = '/home/maruachi/ONCV_PP'
outdir = './out/'
wf_collect = .FALSE.
verbosity = 'high'
/
&SYSTEM
ibrav = 0
nat = 385
ntyp = 3
ecutwfc = 85
nosym = .true.
occupations = 'fixed'
nspin = 2
tot_magnetization = 2.0
nbnd = 820
/
&ELECTRONS
electron_maxstep = 400
conv_thr = 1.0d-7
mixing_mode = 'plain'
mixing_beta = 0.7
diagonalization = 'david'
diago_full_acc = .True.
startingpot = 'atomic'
startingwfc = 'atomic+random'
/
ATOMIC_SPECIES
B   10.8110  B_ONCV_PBE-1.0.upf
N   14.5341  N_ONCV_PBE-1.0.upf
C   14.5341  C_ONCV_PBE-1.0.upf
CELL_PARAMETERS angstrom
17.3593340     0.0000000     0.0000000
 0.0000000    10.0351185     0.0000000
 0.0000000     0.0000000    19.6549149
K_POINTS gamma
ATOMIC_POSITIONS (crystal)
B   0.208907063   0.1250090445   0.08309768549999999
B   0.08384062549999999   0.0   0.08325311049999999
B   0.041666294   0.124999977   0.250021169
B   0.166666254   0.0   0.250021164
B   0.208333702   0.124999997   0.416645819
B   0.083333724   0.0   0.416645809
B   0.04115685499999999   0.125004167   0.584208367
B   0.166174264   0.0   0.5841567590000001
B   0.20859113099999999   0.124949631   0.7502636365
B   0.0838919735   0.0   0.7505690735
B   0.041059820000000004   0.12498974599999998   0.917527783
B   0.166106913   0.0   0.9174271525
B   0.208924703   0.3750088945   0.08302944400000001
B   0.083847968   0.250018772   0.08314199049999998
B   0.0416663   0.374999977   0.250021162
B   0.166666257   0.24999998   0.250021159
B   0.208333693   0.374999985   0.416645819
B   0.083333722   0.249999977   0.416645813
B   0.041137894999999994   0.375004822   0.5840468755
B   0.16616770200000003   0.25000264299999997   0.584072108
B   0.20855598049999996   0.37496891   0.7501521935
B   0.083819063   0.24994036549999998   0.750419803
B   0.040821701   0.37503074550000004   0.9171560700000001
B   0.166005317   0.25002582249999994   0.917241543
B   0.208924703   0.6249911055000001   0.08302944400000001
B   0.0838555545   0.5   0.08303514199999999
B   0.0416663   0.625000023   0.250021162
B   0.166666255   0.5   0.250021156
B   0.208333693   0.625000015   0.416645819
B   0.083333715   0.5   0.416645817
B   0.041137894999999994   0.624995178   0.5840468755
B   0.166161983   0.5   0.5839745189999999
B   0.20855598049999996   0.62503109   0.7501521935
B   0.0838218425   0.5   0.7501668669999999
B   0.040821701   0.6249692545000001   0.9171560700000001
B   0.165915835   0.5   0.916975751
B   0.208907063   0.8749909555   0.08309768549999999
B   0.083847968   0.749981228   0.08314199049999998
B   0.041666294   0.875000023   0.250021169
B   0.166666257   0.75000002   0.250021159
B   0.208333702   0.875000003   0.416645819
B   0.083333722   0.750000023   0.416645813
B   0.04115685499999999   0.874995833   0.584208367
B   0.16616770200000003   0.749997357   0.584072108
B   0.20859113099999999   0.875050369   0.7502636365
B   0.083819063   0.7500596345   0.750419803
B   0.041059820000000004   0.875010254   0.917527783
B   0.166005317   0.7499741775   0.917241543
B   0.45893990799999995   0.1250262995   0.08265543950000001
B   0.33394011700000004   0.0   0.083015792
B   0.291666255   0.124999991   0.250021165
B   0.416666258   0.0   0.250021166
B   0.458333736   0.124999981   0.41664582
B   0.333333706   0.0   0.416645821
B   0.291202628   0.12500033650000003   0.5843922850000001
B   0.41623991149999995   0.0   0.584825677
B   0.4583197885   0.124859452   0.7519974260000001
B   0.33344756099999995   0.0   0.7508898679999999
B   0.29117247949999997   0.12500816399999998   0.9175694485000001
B   0.41643569   0.0   0.9172859295
B   0.459020282   0.37503731500000004   0.0820190485
B   0.33396518249999996   0.25001832700000004   0.08287660799999999
B   0.291666258   0.374999988   0.250021161
B   0.416666257   0.249999981   0.250021165
B   0.458333725   0.374999994   0.416645816
B   0.333333701   0.249999985   0.41664582
B   0.291190986   0.37500060199999996   0.5841482235
B   0.4162291295   0.25000619949999997   0.5843605555
B   0.45745908750000003   0.3744434565   0.751604443
B   0.33321950899999997   0.2497882295   0.7511377175
B   0.29101577700000003   0.375013201   0.9173870670000001
B   0.4162719895   0.25030048450000003   0.9174139285
B   0.459020282   0.6249626850000001   0.0820190485
B   0.333992505   0.5   0.082719016
B   0.291666258   0.625000012   0.250021161
B   0.416666269   0.5   0.250021164
B   0.458333725   0.625000006   0.416645816
B   0.333333704   0.5   0.416645818
B   0.291190986   0.624999398   0.5841482235
B   0.41620901099999996   0.5   0.5838342484999999
B   0.45745908750000003   0.6255565435000001   0.751604443
B   0.333185465   0.5   0.750715884
B   0.29101577700000003   0.624986799   0.9173870670000001
B   0.41608002850000003   0.5   0.9174144129999999
B   0.45893990799999995   0.8749737005   0.08265543950000001
B   0.33396518249999996   0.7499816730000001   0.08287660799999999
B   0.291666255   0.875000009   0.250021165
B   0.416666257   0.750000019   0.250021165
B   0.458333736   0.875000019   0.41664582
B   0.333333701   0.750000015   0.41664582
B   0.291202628   0.8749996634999999   0.5843922850000001
B   0.4162291295   0.7499938005   0.5843605555
B   0.4583197885   0.8751405480000001   0.7519974260000001
B   0.33321950899999997   0.7502117705   0.7511377175
B   0.29117247949999997   0.874991836   0.9175694485000001
B   0.4162719895   0.7496995155   0.9174139285
B   0.7087562105   0.12510646400000003   0.08312982899999999
B   0.5838529964999999   0.0   0.0828121125
B   0.541666268   0.124999987   0.250021164
B   0.666666307   0.0   0.250021156
B   0.708333761   0.124999991   0.416645829
B   0.583333741   0.0   0.416645824
B   0.5412659074999999   0.1250239325   0.584563191
B   0.6662779205   0.0   0.5844669414999999
B   0.7087101795   0.1237567235   0.7517396759999999
B   0.5835818785   0.0   0.75248888
B   0.5415787540000001   0.12568825649999998   0.9164007330000001
B   0.66638469   0.0   0.9197357465
B   0.708723312   0.37521153999999995   0.0817479015
B   0.5838892835   0.25012984000000005   0.082071322
B   0.541666277   0.374999991   0.250021161
B   0.666666304   0.249999988   0.250021156
B   0.708333757   0.374999994   0.416645821
B   0.583333748   0.24999998   0.416645819
B   0.5412607215   0.3750481995   0.582780359
B   0.6662789855000001   0.250069929   0.583185193
B   0.7103424155   0.369579475   0.743128689
B   0.5836082625   0.24901879999999998   0.7499969934999999
B   0.5416428   0.377280316   0.914358893
B   0.6667540279999999   0.250935307   0.9174068900000001
B   0.708723312   0.62478846   0.0817479015
B   0.583996446   0.5   0.0811347865
B   0.541666277   0.625000009   0.250021161
B   0.666666304   0.5   0.250021156
B   0.708333757   0.625000006   0.416645821
B   0.583333738   0.5   0.416645816
B   0.5412607215   0.6249518005   0.582780359
B   0.666270199   0.5   0.5818426175
B   0.7103424155   0.6304205249999999   0.743128689
B   0.5810871205   0.5   0.73816565
B   0.5416428   0.622719684   0.914358893
B   0.6669177844999999   0.5   0.8902614959999999
B   0.7087562105   0.8748935360000001   0.08312982899999999
B   0.5838892835   0.74987016   0.082071322
B   0.541666268   0.875000013   0.250021164
B   0.666666304   0.750000012   0.250021156
B   0.708333761   0.875000009   0.416645829
B   0.583333748   0.75000002   0.416645819
B   0.5412659074999999   0.8749760675   0.584563191
B   0.6662789855000001   0.749930071   0.583185193
B   0.7087101795   0.8762432765   0.7517396759999999
B   0.5836082625   0.7509812   0.7499969934999999
B   0.5415787540000001   0.8743117435000001   0.9164007330000001
B   0.6667540279999999   0.749064693   0.9174068900000001
B   0.9587765404999999   0.125031477   0.08351896449999999
B   0.8337372025   0.0   0.083796815
B   0.79166631   0.124999992   0.250021153
B   0.916666295   0.0   0.250021162
B   0.958333726   0.124999979   0.416645818
B   0.83333376   0.0   0.416645837
B   0.791220464   0.12500132200000003   0.584088975
B   0.9161730429999999   0.0   0.584366111
B   0.959115242   0.12474681500000001   0.7515368905
B   0.8339556799999999   0.0   0.7524844245
B   0.791184795   0.12494096400000002   0.9202202175
B   0.9161311365   0.0   0.9186013519999999
B   0.9587807365000001   0.3750330395   0.0830844875
B   0.8337240185000001   0.25011743950000004   0.083160883
B   0.791666315   0.374999991   0.250021158
B   0.916666295   0.249999973   0.25002116
B   0.958333718   0.374999977   0.416645816
B   0.833333757   0.249999977   0.41664583
B   0.7911451270000001   0.37500628700000005   0.5828729284999999
B   0.916143678   0.2500031455   0.5840933400000001
B   0.9590590284999999   0.37488897849999997   0.7507556585
B   0.834629193   0.2493825045   0.7513498635
B   0.7902543155000001   0.37445365799999997   0.9177979435000001
B   0.9159492450000001   0.249905927   0.9185563239999999
B   0.9587807365000001   0.6249669604999999   0.0830844875
B   0.833710104   0.5   0.08259644249999999
B   0.791666315   0.625000009   0.250021158
B   0.916666298   0.5   0.250021159
B   0.958333718   0.625000023   0.416645816
B   0.833333758   0.5   0.416645824
B   0.7911451270000001   0.6249937130000001   0.5828729284999999
B   0.9161105995   0.5   0.583808001
B   0.9590590284999999   0.6251110215   0.7507556585
B   0.834322043   0.5   0.7488942155
B   0.7902543155000001   0.625546342   0.9177979435000001
B   0.915422671   0.5   0.9168597784999999
B   0.9587765404999999   0.8749685229999999   0.08351896449999999
B   0.8337240185000001   0.7498825605000001   0.083160883
B   0.79166631   0.875000008   0.250021153
B   0.916666295   0.750000027   0.25002116
B   0.958333726   0.875000021   0.416645818
B   0.833333757   0.750000023   0.41664583
B   0.791220464   0.8749986780000001   0.584088975
B   0.916143678   0.7499968545   0.5840933400000001
B   0.959115242   0.8752531849999999   0.7515368905
B   0.834629193   0.7506174955   0.7513498635
B   0.791184795   0.8750590360000001   0.9202202175
B   0.9159492450000001   0.750094073   0.9185563239999999
N   0.208266342   0.125000008   0.250044847
N   0.083266387   0.0   0.250044881
N   0.0422731595   0.1250047345   0.0834676895
N   0.167270018   0.0   0.08326993999999999
N   0.207799038   0.12500149700000002   0.5840476825
N   0.0828041755   0.0   0.5840339925
N   0.041733659   0.124999985   0.416622106
N   0.166733642   0.0   0.416622112
N   0.20766687499999997   0.1250058805   0.9175082109999999
N   0.082800433   0.0   0.9173955814999999
N   0.042490707999999995   0.124870627   0.750626571
N   0.16716413149999998   0.0   0.7500267765000002
N   0.208266332   0.375   0.250044851
N   0.083266391   0.249999993   0.250044862
N   0.042284397   0.3750054965   0.08324462400000002
N   0.167276591   0.250004757   0.0832196865
N   0.207789709   0.37499999850000004   0.5838916685
N   0.0827968765   0.25000668000000004   0.5839458179999999
N   0.041733677   0.374999984   0.416622107
N   0.166733643   0.249999991   0.416622112
N   0.2075214525   0.374999321   0.9170792535000001
N   0.08269260299999999   0.25002199550000004   0.917300434
N   0.0424636075   0.374962794   0.7502212930000001
N   0.167132952   0.24994201800000004   0.7499907400000001
N   0.208266332   0.625   0.250044851
N   0.083266392   0.5   0.250044859
N   0.042284397   0.6249945035   0.08324462400000002
N   0.167283576   0.5   0.0831806655
N   0.207789709   0.6250000014999999   0.5838916685
N   0.08279054300000001   0.5   0.5838360494999999
N   0.041733677   0.625000016   0.416622107
N   0.166733638   0.5   0.416622115
N   0.2075214525   0.625000679   0.9170792535000001
N   0.082617575   0.5   0.916952335
N   0.0424636075   0.625037206   0.7502212930000001
N   0.16712945749999997   0.5   0.7498005895000001
N   0.208266342   0.874999992   0.250044847
N   0.083266391   0.750000007   0.250044862
N   0.0422731595   0.8749952655000001   0.0834676895
N   0.167276591   0.7499952430000001   0.0832196865
N   0.207799038   0.874998503   0.5840476825
N   0.0827968765   0.74999332   0.5839458179999999
N   0.041733659   0.875000015   0.416622106
N   0.166733643   0.750000009   0.416622112
N   0.20766687499999997   0.8749941195000001   0.9175082109999999
N   0.08269260299999999   0.7499780045000001   0.917300434
N   0.042490707999999995   0.875129373   0.750626571
N   0.167132952   0.750057982   0.7499907400000001
N   0.458266378   0.125000005   0.250044863
N   0.33326637   0.0   0.250044867
N   0.29226154049999997   0.125002783   0.08322737999999999
N   0.41723759950000006   0.0   0.083111996
N   0.4578093035   0.125005374   0.5846677410000001
N   0.3328070635   0.0   0.584471673
N   0.291733627   0.125000014   0.416622136
N   0.416733665   0.0   0.416622118
N   0.4577097295   0.125011195   0.916955736
N   0.33269298249999996   0.0   0.9176056665000001
N   0.2918140695   0.1248466865   0.7503994310000001
N   0.4167166705   0.0   0.7512242925000001
N   0.458266377   0.375000027   0.250044864
N   0.333266366   0.250000003   0.250044874
N   0.2922717345   0.37500184999999997   0.08310732800000001
N   0.41725340050000004   0.249994903   0.08282023599999999
N   0.4577838915   0.3750053314999999   0.5836249130000001
N   0.332797978   0.250001055   0.5842677895
N   0.291733646   0.374999986   0.416622131
N   0.416733654   0.250000002   0.416622121
N   0.4572376845   0.374999247   0.9173415970000001
N   0.332514081   0.249969895   0.9175324735000001
N   0.291768551   0.37489693350000003   0.750327231
N   0.4163407735   0.24952378449999998   0.7519054009999999
N   0.458266377   0.624999973   0.250044864
N   0.333266374   0.5   0.250044874
N   0.2922717345   0.6249981499999999   0.08310732800000001
N   0.417262421   0.5   0.082524242
N   0.4577838915   0.6249946685   0.5836249130000001
N   0.33277973699999996   0.5   0.5839642265
N   0.291733646   0.625000014   0.416622131
N   0.416733666   0.5   0.416622117
N   0.4572376845   0.6250007529999999   0.9173415970000001
N   0.33229140050000006   0.5   0.917547907
N   0.291768551   0.6251030664999999   0.750327231
N   0.416281926   0.5   0.7507013765
N   0.458266378   0.874999995   0.250044863
N   0.333266366   0.749999997   0.250044874
N   0.29226154049999997   0.874997217   0.08322737999999999
N   0.41725340050000004   0.750005097   0.08282023599999999
N   0.4578093035   0.874994626   0.5846677410000001
N   0.332797978   0.7499989450000001   0.5842677895
N   0.291733627   0.874999986   0.416622136
N   0.416733654   0.749999998   0.416622121
N   0.4577097295   0.8749888050000001   0.916955736
N   0.332514081   0.750030105   0.9175324735000001
N   0.2918140695   0.8751533135   0.7503994310000001
N   0.4163407735   0.7504762155   0.7519054009999999
N   0.708266388   0.124999997   0.250044835
N   0.583266356   0.0   0.250044858
N   0.5422250504999999   0.12499706   0.082841629
N   0.6672159049999999   0.0   0.08365634999999999
N   0.7078350755   0.12497631149999999   0.5838752865000001
N   0.5828137879999999   0.0   0.5847092460000001
N   0.541733625   0.124999996   0.416622121
N   0.666733652   0.0   0.416622111
N   0.7079673655000001   0.124504019   0.9206666295
N   0.582785792   0.0   0.9177248445
N   0.5415737855   0.1247679445   0.7518741715000001
N   0.6668803240000001   0.0   0.75272856
N   0.708266364   0.374999988   0.250044842
N   0.583266356   0.250000006   0.250044855
N   0.5422457   0.37499299199999997   0.081934355
N   0.6672161575   0.24999399249999998   0.08276418499999999
N   0.7078150510000001   0.3749239135   0.58142564
N   0.5827916455000001   0.250019714   0.5834929185
N   0.541733631   0.375000029   0.416622116
N   0.666733649   0.250000004   0.416622103
N   0.708341847   0.3730845035   0.9163250575
N   0.5827597794999999   0.250095646   0.9143435664999999
N   0.5403725135   0.3740716005   0.7497530035
N   0.666802992   0.24639741   0.7479008170000001
N   0.708266364   0.625000012   0.250044842
N   0.583266346   0.5   0.250044852
N   0.5422457   0.6250070080000001   0.081934355
N   0.6672208575   0.5   0.0823683445
N   0.7078150510000001   0.6250760864999999   0.58142564
N   0.5827411834999999   0.5   0.5813838665
N   0.541733631   0.624999971   0.416622116
N   0.666733646   0.5   0.416622098
N   0.708341847   0.6269154964999999   0.9163250575
N   0.581577749   0.5   0.9098702940000001
N   0.5403725135   0.6259283995   0.7497530035
N   0.708266388   0.875000003   0.250044835
N   0.583266356   0.749999994   0.250044855
N   0.5422250504999999   0.8750029399999999   0.082841629
N   0.6672161575   0.7500060075000001   0.08276418499999999
N   0.7078350755   0.8750236885   0.5838752865000001
N   0.5827916455000001   0.749980286   0.5834929185
N   0.541733625   0.875000004   0.416622121
N   0.666733649   0.749999996   0.416622103
N   0.7079673655000001   0.875495981   0.9206666295
N   0.5827597794999999   0.749904354   0.9143435664999999
N   0.5415737855   0.8752320555   0.7518741715000001
N   0.666802992   0.75360259   0.7479008170000001
N   0.958266347   0.124999972   0.250044866
N   0.833266371   0.0   0.250044859
N   0.792243967   0.12500654349999998   0.0839347925
N   0.917262823   0.0   0.08398128299999999
N   0.9578164169999999   0.1250041995   0.5841533425000001
N   0.8328414094999999   0.0   0.5841790605
N   0.791733669   0.125   0.416622143
N   0.916733627   0.0   0.416622114
N   0.9579427814999999   0.12492629849999999   0.918128837
N   0.8330884005   0.0   0.919616585
N   0.7924835805000001   0.12458641349999999   0.751955073
N   0.9175417505000001   0.0   0.7518820199999999
N   0.958266347   0.374999988   0.250044864
N   0.833266364   0.249999982   0.250044854
N   0.7922507630000001   0.37501739349999996   0.082908655
N   0.9172689460000001   0.250014284   0.08359207000000002
N   0.957793588   0.375005813   0.5838650945
N   0.832814816   0.2499766315   0.5835692459999999
N   0.791733667   0.374999996   0.41662213
N   0.916733624   0.249999969   0.416622111
N   0.9577161510000001   0.375002986   0.9174141984999999
N   0.8331006555   0.24948996750000002   0.9200903115000001
N   0.7940023055000001   0.37357310800000004   0.7485061195
N   0.917974845   0.2495408415   0.7512837594999999
N   0.958266347   0.625000012   0.250044864
N   0.833266368   0.5   0.250044856
N   0.7922507630000001   0.6249826065   0.082908655
N   0.9172726325   0.5   0.0831782265
N   0.957793588   0.624994187   0.5838650945
N   0.8327851874999999   0.5   0.582926439
N   0.791733667   0.625000004   0.41662213
N   0.916733625   0.5   0.41662211
N   0.9577161510000001   0.6249970139999999   0.9174141984999999
N   0.8326578570000001   0.5   0.9160351625
N   0.7940023055000001   0.626426892   0.7485061195
N   0.917792897   0.5   0.7501172599999999
N   0.958266347   0.875000028   0.250044866
N   0.833266364   0.750000018   0.250044854
N   0.792243967   0.8749934564999999   0.0839347925
N   0.9172689460000001   0.7499857160000001   0.08359207000000002
N   0.9578164169999999   0.8749958005   0.5841533425000001
N   0.832814816   0.7500233685   0.5835692459999999
N   0.791733669   0.875   0.416622143
N   0.916733624   0.750000031   0.416622111
N   0.9579427814999999   0.8750737015000001   0.918128837
N   0.8331006555   0.7505100325   0.9200903115000001
N   0.7924835805000001   0.8754135865   0.751955073
N   0.917974845   0.7504591585   0.7512837594999999
C   0.6662582865   0.5   0.7249538445000001
C   0.686208643   0.5   0.8025698495
