&CONTROL
calculation = 'scf'
restart_mode = 'from_scratch'
prefix = 'h-BN'
pseudo_dir = '/home/maruachi/ONCV_PP'
outdir = './out/'
wf_collect = .FALSE.
verbosity = 'high'
/
&SYSTEM
ibrav = 0
nat = 385
ntyp = 3
ecutwfc = 85
nosym = .true.
occupations = 'fixed'
nspin = 2
tot_magnetization = 2.0
nbnd = 820
/
&ELECTRONS
electron_maxstep = 400
conv_thr = 1.0d-7
mixing_mode = 'plain'
mixing_beta = 0.7
diagonalization = 'david'
diago_full_acc = .True.
startingpot = 'atomic'
startingwfc = 'atomic+random'
/
ATOMIC_SPECIES
B   10.8110  B_ONCV_PBE-1.0.upf
N   14.5341  N_ONCV_PBE-1.0.upf
C   14.5341  C_ONCV_PBE-1.0.upf
CELL_PARAMETERS angstrom
17.3593340     0.0000000     0.0000000
 0.0000000    10.0351185     0.0000000
 0.0000000     0.0000000    19.6549149
K_POINTS gamma
ATOMIC_POSITIONS (crystal)
B   0.208907591   0.12501168599999998   0.083201032
B   0.08383346499999998   0.0   0.08343335299999999
B   0.041666294   0.124999977   0.250021169
B   0.166666254   0.0   0.250021164
B   0.208333702   0.124999997   0.416645819
B   0.083333724   0.0   0.416645809
B   0.041180500999999994   0.12500478999999998   0.584386351
B   0.166186605   0.0   0.5843623080000001
B   0.208615043   0.124951916   0.7504897730000001
B   0.08385970899999999   0.0   0.75081246
B   0.040996329000000005   0.12498457199999999   0.9177995680000001
B   0.166069484   0.0   0.91781351
B   0.208927527   0.37501131800000004   0.083078209
B   0.083840941   0.25002229600000003   0.08328158899999999
B   0.0416663   0.374999977   0.250021162
B   0.166666257   0.24999998   0.250021159
B   0.208333693   0.374999985   0.416645819
B   0.083333722   0.249999977   0.416645813
B   0.04115851899999999   0.375005613   0.58414221
B   0.16618053500000002   0.249999551   0.584223043
B   0.20850016099999996   0.374944553   0.750312348
B   0.083790257   0.24991246899999997   0.750638814
B   0.040727937   0.375030438   0.9173191980000001
B   0.16593850500000001   0.25003336699999995   0.917511702
B   0.208927527   0.6249886820000001   0.083078209
B   0.083849097   0.5   0.08313889599999999
B   0.0416663   0.625000023   0.250021162
B   0.166666255   0.5   0.250021156
B   0.208333693   0.625000015   0.416645819
B   0.083333715   0.5   0.416645817
B   0.04115851899999999   0.624994387   0.58414221
B   0.166175411   0.5   0.5840629729999999
B   0.20850016099999996   0.6250554469999999   0.750312348
B   0.08379927699999999   0.5   0.750275678
B   0.040727937   0.6249695620000001   0.9173191980000001
B   0.16582972600000004   0.5   0.9171074459999999
B   0.208907591   0.874988314   0.083201032
B   0.083840941   0.7499777040000001   0.08328158899999999
B   0.041666294   0.875000023   0.250021169
B   0.166666257   0.75000002   0.250021159
B   0.208333702   0.875000003   0.416645819
B   0.083333722   0.750000023   0.416645813
B   0.041180500999999994   0.8749952099999999   0.584386351
B   0.16618053500000002   0.750000449   0.584223043
B   0.208615043   0.875048084   0.7504897730000001
B   0.083790257   0.750087531   0.750638814
B   0.040996329000000005   0.875015428   0.9177995680000001
B   0.16593850500000001   0.749966633   0.917511702
B   0.4589397439999999   0.12503765699999997   0.082276624
B   0.333943345   0.0   0.082976401
B   0.291666255   0.124999991   0.250021165
B   0.416666258   0.0   0.250021166
B   0.458333736   0.124999981   0.41664582
B   0.333333706   0.0   0.416645821
B   0.291207886   0.12499262200000003   0.584858949
B   0.41624496299999997   0.0   0.5856896989999999
B   0.458367218   0.124913054   0.7539150040000001
B   0.33348745799999996   0.0   0.7516843629999999
B   0.29115264799999996   0.125037567   0.9180292600000001
B   0.4164427600000001   0.0   0.9175254009999999
B   0.45903665299999996   0.37505601000000005   0.081240031
B   0.33397246699999994   0.25002705500000005   0.082707173
B   0.291666258   0.374999988   0.250021161
B   0.416666257   0.249999981   0.250021165
B   0.458333725   0.374999994   0.416645816
B   0.333333701   0.249999985   0.41664582
B   0.291197163   0.37499187599999995   0.5844411429999999
B   0.416232533   0.24997504099999995   0.584911435
B   0.45731813800000004   0.37477461300000003   0.7535542199999999
B   0.333254528   0.24986652499999998   0.7521843010000001
B   0.290947752   0.375033126   0.9175409200000001
B   0.41631681800000003   0.25048932500000004   0.9171421410000001
B   0.45903665299999996   0.6249439900000001   0.081240031
B   0.33400435199999995   0.5   0.082423288
B   0.291666258   0.625000012   0.250021161
B   0.416666269   0.5   0.250021164
B   0.458333725   0.625000006   0.416645816
B   0.333333704   0.5   0.416645818
B   0.291197163   0.625008124   0.5844411429999999
B   0.41620603399999995   0.5   0.5840531929999999
B   0.45731813800000004   0.6252253870000001   0.7535542199999999
B   0.333005766   0.5   0.751340565
B   0.290947752   0.6249668740000001   0.9175409200000001
B   0.41605799000000004   0.5   0.9164652929999999
B   0.4589397439999999   0.8749623430000001   0.082276624
B   0.33397246699999994   0.7499729450000001   0.082707173
B   0.291666255   0.875000009   0.250021165
B   0.416666257   0.750000019   0.250021165
B   0.458333736   0.875000019   0.41664582
B   0.333333701   0.750000015   0.41664582
B   0.291207886   0.875007378   0.584858949
B   0.416232533   0.7500249589999999   0.584911435
B   0.458367218   0.875086946   0.7539150040000001
B   0.333254528   0.750133475   0.7521843010000001
B   0.29115264799999996   0.8749624329999999   0.9180292600000001
B   0.41631681800000003   0.749510675   0.9171421410000001
B   0.70873168   0.12512050800000002   0.083075532
B   0.5838402509999999   0.0   0.08249983300000001
B   0.541666268   0.124999987   0.250021164
B   0.666666307   0.0   0.250021156
B   0.708333761   0.124999991   0.416645829
B   0.583333741   0.0   0.416645824
B   0.541285862   0.125003291   0.5853064570000001
B   0.6663280330000001   0.0   0.5850755679999999
B   0.7087147420000001   0.123677625   0.752890416
B   0.5837032769999999   0.0   0.754494497
B   0.5415908770000001   0.125835221   0.9158672550000001
B   0.666336924   0.0   0.9201836590000001
B   0.708686237   0.37523673699999993   0.081342161
B   0.583875668   0.25016876900000007   0.08143504300000001
B   0.541666277   0.374999991   0.250021161
B   0.666666304   0.249999988   0.250021156
B   0.708333757   0.374999994   0.416645821
B   0.583333748   0.24999998   0.416645819
B   0.541284055   0.37502287400000006   0.582400065
B   0.6663458580000001   0.25007017200000003   0.583114688
B   0.710193879   0.36951437899999995   0.740460459
B   0.583923302   0.24861345899999998   0.751282444
B   0.5419629599999999   0.37826827500000004   0.911055681
B   0.666673242   0.25107405899999996   0.9168005120000001
B   0.708686237   0.6247632630000001   0.081342161
B   0.5839896   0.5   0.08024242000000001
B   0.541666277   0.625000009   0.250021161
B   0.666666304   0.5   0.250021156
B   0.708333757   0.625000006   0.416645821
B   0.583333738   0.5   0.416645816
B   0.541284055   0.624977126   0.582400065
B   0.666367019   0.5   0.5810120950000001
B   0.710193879   0.6304856209999999   0.740460459
B   0.582057799   0.5   0.7298570390000001
B   0.5419629599999999   0.6217317250000001   0.911055681
B   0.6677041699999999   0.5   0.885418053
B   0.70873168   0.874879492   0.083075532
B   0.583875668   0.7498312309999999   0.08143504300000001
B   0.541666268   0.875000013   0.250021164
B   0.666666304   0.750000012   0.250021156
B   0.708333761   0.875000009   0.416645829
B   0.583333748   0.75000002   0.416645819
B   0.541285862   0.8749967089999999   0.5853064570000001
B   0.6663458580000001   0.749929828   0.583114688
B   0.7087147420000001   0.876322375   0.752890416
B   0.583923302   0.751386541   0.751282444
B   0.5415908770000001   0.874164779   0.9158672550000001
B   0.666673242   0.7489259410000001   0.9168005120000001
B   0.958761423   0.125035879   0.08375806199999998
B   0.833716845   0.0   0.084068448
B   0.79166631   0.124999992   0.250021153
B   0.916666295   0.0   0.250021162
B   0.958333726   0.124999979   0.416645818
B   0.83333376   0.0   0.416645837
B   0.7912744629999999   0.12499591900000004   0.5843411380000001
B   0.916210358   0.0   0.584645628
B   0.959033408   0.12478189700000002   0.7522021120000001
B   0.8339035009999999   0.0   0.7535599299999999
B   0.7911077990000001   0.12493936500000001   0.920977418
B   0.916067282   0.0   0.9191133669999999
B   0.958763637   0.37503705800000003   0.08319367800000001
B   0.8336985290000001   0.25013009700000005   0.083257829
B   0.791666315   0.374999991   0.250021158
B   0.916666295   0.249999973   0.25002116
B   0.958333718   0.374999977   0.416645816
B   0.833333757   0.249999977   0.41664583
B   0.791189821   0.37500139300000007   0.5825295549999999
B   0.916176908   0.25000243   0.5842502100000001
B   0.9590553259999999   0.37489339899999996   0.751234174
B   0.834537258   0.24962582599999997   0.7523557350000001
B   0.7900725180000001   0.374393111   0.9178639550000001
B   0.9158627440000001   0.249903186   0.9190072049999999
B   0.958763637   0.6249629419999999   0.08319367800000001
B   0.833679936   0.5   0.08253749299999999
B   0.791666315   0.625000009   0.250021158
B   0.916666298   0.5   0.250021159
B   0.958333718   0.625000023   0.416645816
B   0.833333758   0.5   0.416645824
B   0.791189821   0.6249986070000001   0.5825295549999999
B   0.9161373159999999   0.5   0.583830088
B   0.9590553259999999   0.625106601   0.751234174
B   0.834413024   0.5   0.7490465079999999
B   0.7900725180000001   0.625606889   0.9178639550000001
B   0.915276974   0.5   0.9169755909999999
B   0.958761423   0.874964121   0.08375806199999998
B   0.8336985290000001   0.7498699030000001   0.083257829
B   0.79166631   0.875000008   0.250021153
B   0.916666295   0.750000027   0.25002116
B   0.958333726   0.875000021   0.416645818
B   0.833333757   0.750000023   0.41664583
B   0.7912744629999999   0.875004081   0.5843411380000001
B   0.916176908   0.7499975699999999   0.5842502100000001
B   0.959033408   0.8752181029999999   0.7522021120000001
B   0.834537258   0.750374174   0.7523557350000001
B   0.7911077990000001   0.8750606350000001   0.920977418
B   0.9158627440000001   0.750096814   0.9190072049999999
N   0.208266342   0.125000008   0.250044847
N   0.083266387   0.0   0.250044881
N   0.042268585   0.12500580499999997   0.083662717
N   0.16726438899999999   0.0   0.08341754799999998
N   0.20782911   0.125002102   0.5843015690000001
N   0.08283359899999998   0.0   0.5841932489999999
N   0.041733659   0.124999985   0.416622106
N   0.166733642   0.0   0.416622112
N   0.20762419799999998   0.125017043   0.9179130249999999
N   0.082762747   0.0   0.9176301769999999
N   0.04245469599999999   0.124869913   0.750932078
N   0.16720456799999997   0.0   0.7501231000000002
N   0.208266332   0.375   0.250044851
N   0.083266391   0.249999993   0.250044862
N   0.042278624   0.375006643   0.08336496100000002
N   0.167270467   0.2500055010000001   0.08333296200000001
N   0.20782325   0.37499978600000006   0.584042021
N   0.082826662   0.250008995   0.5840620719999999
N   0.041733677   0.374999984   0.416622107
N   0.166733643   0.249999991   0.416622112
N   0.2074312   0.37500018999999996   0.9172159660000001
N   0.08263088799999999   0.250020134   0.9174839650000001
N   0.042481878   0.374951458   0.7504167300000001
N   0.16715233399999999   0.24991311200000005   0.750101988
N   0.208266332   0.625   0.250044851
N   0.083266392   0.5   0.250044859
N   0.042278624   0.624993357   0.08336496100000002
N   0.16727699299999998   0.5   0.08326747699999999
N   0.20782325   0.6250002139999999   0.584042021
N   0.08282136100000001   0.5   0.5838946669999999
N   0.041733677   0.625000016   0.416622107
N   0.166733638   0.5   0.416622115
N   0.2074312   0.6249998099999999   0.9172159660000001
N   0.08253785300000001   0.5   0.9170239809999999
N   0.042481878   0.6250485419999999   0.7504167300000001
N   0.16715024599999997   0.5   0.7497785530000001
N   0.208266342   0.874999992   0.250044847
N   0.083266391   0.750000007   0.250044862
N   0.042268585   0.8749941950000001   0.083662717
N   0.167270467   0.749994499   0.08333296200000001
N   0.20782911   0.874997898   0.5843015690000001
N   0.082826662   0.7499910049999999   0.5840620719999999
N   0.041733659   0.875000015   0.416622106
N   0.166733643   0.750000009   0.416622112
N   0.20762419799999998   0.8749829570000001   0.9179130249999999
N   0.08263088799999999   0.7499798660000001   0.9174839650000001
N   0.04245469599999999   0.8751300870000001   0.750932078
N   0.16715233399999999   0.750086888   0.750101988
N   0.458266378   0.125000005   0.250044863
N   0.33326637   0.0   0.250044867
N   0.292254878   0.125003972   0.08325984299999999
N   0.41722774700000004   0.0   0.08293759299999999
N   0.457834388   0.12500539400000002   0.585595434
N   0.332836829   0.0   0.585137176
N   0.291733627   0.125000014   0.416622136
N   0.416733665   0.0   0.416622118
N   0.45766833500000004   0.125018636   0.916798316
N   0.33264748999999993   0.0   0.918049607
N   0.29192527599999996   0.124890353   0.7508863480000001
N   0.416834908   0.0   0.7524845920000001
N   0.458266377   0.375000027   0.250044864
N   0.333266366   0.250000003   0.250044874
N   0.292263635   0.375002265   0.08301971000000001
N   0.41724706000000006   0.25000083   0.082390223
N   0.457814331   0.37500228699999993   0.5839168870000001
N   0.332831821   0.249999317   0.584796614
N   0.291733646   0.374999986   0.416622131
N   0.416733654   0.250000002   0.416622121
N   0.45720752800000003   0.37513770699999993   0.9158900940000001
N   0.332462281   0.250004012   0.9177318440000001
N   0.29179232199999994   0.37489020100000003   0.750755397
N   0.41654290799999993   0.24980889199999998   0.753958575
N   0.458266377   0.624999973   0.250044864
N   0.333266374   0.5   0.250044874
N   0.292263635   0.6249977349999999   0.08301971000000001
N   0.417254242   0.5   0.08187111500000001
N   0.457814331   0.624997713   0.5839168870000001
N   0.332813276   0.5   0.584289409
N   0.291733646   0.625000014   0.416622131
N   0.416733666   0.5   0.416622117
N   0.45720752800000003   0.624862293   0.9158900940000001
N   0.33215068000000003   0.5   0.917461835
N   0.29179232199999994   0.625109799   0.750755397
N   0.41625604   0.5   0.751640748
N   0.458266378   0.874999995   0.250044863
N   0.333266366   0.749999997   0.250044874
N   0.292254878   0.874996028   0.08325984299999999
N   0.41724706000000006   0.7499991699999999   0.082390223
N   0.457834388   0.874994606   0.585595434
N   0.332831821   0.7500006830000001   0.584796614
N   0.291733627   0.874999986   0.416622136
N   0.416733654   0.749999998   0.416622121
N   0.45766833500000004   0.874981364   0.916798316
N   0.332462281   0.749995988   0.9177318440000001
N   0.29192527599999996   0.875109647   0.7508863480000001
N   0.41654290799999993   0.750191108   0.753958575
N   0.708266388   0.124999997   0.250044835
N   0.583266356   0.0   0.250044858
N   0.54221274   0.125004555   0.08240602999999999
N   0.667201916   0.0   0.08363073199999999
N   0.707862266   0.12496737599999999   0.584251798
N   0.582829253   0.0   0.585684745
N   0.541733625   0.124999996   0.416622121
N   0.666733652   0.0   0.416622111
N   0.707916012   0.124489533   0.921241733
N   0.582742124   0.0   0.917766304
N   0.5416067160000001   0.124968441   0.7539973740000001
N   0.666834373   0.0   0.754401724
N   0.708266364   0.374999988   0.250044842
N   0.583266356   0.250000006   0.250044855
N   0.5422400230000001   0.37501221799999995   0.080988534
N   0.6672006659999999   0.24999455899999998   0.082430145
N   0.70784051   0.374891634   0.580647797
N   0.5827992500000001   0.25003380399999997   0.5837885859999999
N   0.541733631   0.375000029   0.416622116
N   0.666733649   0.250000004   0.416622103
N   0.7082527730000001   0.373002903   0.9156460280000001
N   0.582730381   0.25011945399999996   0.9122710569999999
N   0.540665417   0.37503606199999995   0.7514517619999999
N   0.6666479120000001   0.246031241   0.7477483810000001
N   0.708266364   0.625000012   0.250044842
N   0.583266346   0.5   0.250044852
N   0.5422400230000001   0.624987782   0.080988534
N   0.667192979   0.5   0.081839119
N   0.70784051   0.6251083659999999   0.580647797
N   0.5827419559999999   0.5   0.580636287
N   0.541733631   0.624999971   0.416622116
N   0.666733646   0.5   0.416622098
N   0.7082527730000001   0.6269970969999998   0.9156460280000001
N   0.581677005   0.5   0.9025178290000001
N   0.540665417   0.6249639379999999   0.7514517619999999
N   0.708266388   0.875000003   0.250044835
N   0.583266356   0.749999994   0.250044855
N   0.54221274   0.8749954449999999   0.08240602999999999
N   0.6672006659999999   0.7500054410000001   0.082430145
N   0.707862266   0.8750326239999999   0.584251798
N   0.5827992500000001   0.7499661959999999   0.5837885859999999
N   0.541733625   0.875000004   0.416622121
N   0.666733649   0.749999996   0.416622103
N   0.707916012   0.8755104670000001   0.921241733
N   0.582730381   0.749880546   0.9122710569999999
N   0.5416067160000001   0.8750315590000001   0.7539973740000001
N   0.6666479120000001   0.7539687589999999   0.7477483810000001
N   0.958266347   0.124999972   0.250044866
N   0.833266371   0.0   0.250044859
N   0.79223497   0.12500784299999998   0.08415354
N   0.917258311   0.0   0.08429741599999999
N   0.9578473849999999   0.125005918   0.584388311
N   0.8328762149999999   0.0   0.584522317
N   0.791733669   0.125   0.416622143
N   0.916733627   0.0   0.416622114
N   0.957901842   0.12492066599999999   0.918472663
N   0.833054191   0.0   0.9203365450000001
N   0.7924314050000001   0.12463635599999999   0.7529996899999999
N   0.917485626   0.0   0.7527032829999999
N   0.958266347   0.374999988   0.250044864
N   0.833266364   0.249999982   0.250044854
N   0.7922340310000001   0.37502008099999995   0.082828267
N   0.917261611   0.250016818   0.08378449000000002
N   0.957819963   0.375007647   0.58396961
N   0.8328421099999999   0.249969279   0.5836417249999999
N   0.791733667   0.374999996   0.41662213
N   0.916733624   0.249999969   0.416622111
N   0.957645163   0.37500443499999997   0.9176024039999999
N   0.833056823   0.24946302800000003   0.920753232
N   0.793996915   0.37380830100000006   0.748820054
N   0.917906598   0.24961740400000001   0.7520512479999999
N   0.958266347   0.625000012   0.250044864
N   0.833266368   0.5   0.250044856
N   0.7922340310000001   0.624979919   0.082828267
N   0.917261698   0.5   0.08325432199999999
N   0.957819963   0.6249923529999999   0.58396961
N   0.8328031679999999   0.5   0.5826931949999999
N   0.791733667   0.625000004   0.41662213
N   0.916733625   0.5   0.41662211
N   0.957645163   0.6249955649999999   0.9176024039999999
N   0.8325618180000001   0.5   0.9158700980000001
N   0.793996915   0.6261916989999999   0.748820054
N   0.9178456340000001   0.5   0.7504942969999999
N   0.958266347   0.875000028   0.250044866
N   0.833266364   0.750000018   0.250044854
N   0.79223497   0.874992157   0.08415354
N   0.917261611   0.749983182   0.08378449000000002
N   0.9578473849999999   0.874994082   0.584388311
N   0.8328421099999999   0.750030721   0.5836417249999999
N   0.791733669   0.875   0.416622143
N   0.916733624   0.750000031   0.416622111
N   0.957901842   0.875079334   0.918472663
N   0.833056823   0.7505369720000001   0.920753232
N   0.7924314050000001   0.875363644   0.7529996899999999
N   0.917906598   0.750382596   0.7520512479999999
C   0.665311678   0.5   0.7134291260000001
C   0.7068776959999999   0.5   0.793633714
