&CONTROL
calculation = 'scf'
restart_mode = 'from_scratch'
prefix = 'h-BN'
pseudo_dir = '/home/maruachi/ONCV_PP'
outdir = './out/'
wf_collect = .FALSE.
verbosity = 'high'
/
&SYSTEM
ibrav = 0
nat = 385
ntyp = 3
ecutwfc = 85
nosym = .true.
occupations = 'fixed'
nspin = 2
tot_magnetization = 2.0
nbnd = 820
/
&ELECTRONS
electron_maxstep = 400
conv_thr = 1.0d-7
mixing_mode = 'plain'
mixing_beta = 0.7
diagonalization = 'david'
diago_full_acc = .True.
startingpot = 'atomic'
startingwfc = 'atomic+random'
/
ATOMIC_SPECIES
B   10.8110  B_ONCV_PBE-1.0.upf
N   14.5341  N_ONCV_PBE-1.0.upf
C   14.5341  C_ONCV_PBE-1.0.upf
CELL_PARAMETERS angstrom
17.3593340     0.0000000     0.0000000
 0.0000000    10.0351185     0.0000000
 0.0000000     0.0000000    19.6549149
K_POINTS gamma
ATOMIC_POSITIONS (crystal)
B   0.208906535   0.125006403   0.082994339
B   0.083847786   0.0   0.083072868
B   0.041666294   0.124999977   0.250021169
B   0.166666254   0.0   0.250021164
B   0.208333702   0.124999997   0.416645819
B   0.083333724   0.0   0.416645809
B   0.041133209   0.125003544   0.584030383
B   0.166161923   0.0   0.58395121
B   0.208567219   0.124947346   0.7500375
B   0.083924238   0.0   0.750325687
B   0.041123311   0.12499492   0.917255998
B   0.166144342   0.0   0.917040795
B   0.208921879   0.375006471   0.082980679
B   0.083854995   0.250015248   0.083002392
B   0.0416663   0.374999977   0.250021162
B   0.166666257   0.24999998   0.250021159
B   0.208333693   0.374999985   0.416645819
B   0.083333722   0.249999977   0.416645813
B   0.041117271   0.375004031   0.583951541
B   0.166154869   0.250005735   0.583921173
B   0.2086118   0.374993267   0.749992039
B   0.083847869   0.249968262   0.750200792
B   0.040915465   0.375031053   0.916992942
B   0.166072129   0.250018278   0.916971384
B   0.208921879   0.624993529   0.082980679
B   0.083862012   0.5   0.082931388
B   0.0416663   0.625000023   0.250021162
B   0.166666255   0.5   0.250021156
B   0.208333693   0.625000015   0.416645819
B   0.083333715   0.5   0.416645817
B   0.041117271   0.624995969   0.583951541
B   0.166148555   0.5   0.583886065
B   0.2086118   0.625006733   0.749992039
B   0.083844408   0.5   0.750058056
B   0.040915465   0.624968947   0.916992942
B   0.166001944   0.5   0.916844056
B   0.208906535   0.874993597   0.082994339
B   0.083854995   0.749984752   0.083002392
B   0.041666294   0.875000023   0.250021169
B   0.166666257   0.75000002   0.250021159
B   0.208333702   0.875000003   0.416645819
B   0.083333722   0.750000023   0.416645813
B   0.041133209   0.874996456   0.584030383
B   0.166154869   0.749994265   0.583921173
B   0.208567219   0.875052654   0.7500375
B   0.083847869   0.750031738   0.750200792
B   0.041123311   0.87500508   0.917255998
B   0.166072129   0.749981722   0.916971384
B   0.458940072   0.125014942   0.083034255
B   0.333936889   0.0   0.083055183
B   0.291666255   0.124999991   0.250021165
B   0.416666258   0.0   0.250021166
B   0.458333736   0.124999981   0.41664582
B   0.333333706   0.0   0.416645821
B   0.29119737   0.125008051   0.583925621
B   0.41623486   0.0   0.583961655
B   0.458272359   0.12480585   0.750079848
B   0.333407664   0.0   0.750095373
B   0.291192311   0.124978761   0.917109637
B   0.41642862   0.0   0.917046458
B   0.459003911   0.37501862   0.082798066
B   0.333957898   0.250009599   0.083046043
B   0.291666258   0.374999988   0.250021161
B   0.416666257   0.249999981   0.250021165
B   0.458333725   0.374999994   0.416645816
B   0.333333701   0.249999985   0.41664582
B   0.291184809   0.375009328   0.583855304
B   0.416225726   0.250037358   0.583809676
B   0.457600037   0.3741123   0.749654666
B   0.33318449   0.249709934   0.750091134
B   0.291083802   0.374993276   0.917233214
B   0.416227161   0.250111644   0.917685716
B   0.459003911   0.62498138   0.082798066
B   0.333980658   0.5   0.083014744
B   0.291666258   0.625000012   0.250021161
B   0.416666269   0.5   0.250021164
B   0.458333725   0.625000006   0.416645816
B   0.333333704   0.5   0.416645818
B   0.291184809   0.624990672   0.583855304
B   0.416211988   0.5   0.583615304
B   0.457600037   0.6258877   0.749654666
B   0.333365164   0.5   0.750091203
B   0.291083802   0.625006724   0.917233214
B   0.416102067   0.5   0.918363533
B   0.458940072   0.874985058   0.083034255
B   0.333957898   0.749990401   0.083046043
B   0.291666255   0.875000009   0.250021165
B   0.416666257   0.750000019   0.250021165
B   0.458333736   0.875000019   0.41664582
B   0.333333701   0.750000015   0.41664582
B   0.29119737   0.874991949   0.583925621
B   0.416225726   0.749962642   0.583809676
B   0.458272359   0.87519415   0.750079848
B   0.33318449   0.750290066   0.750091134
B   0.291192311   0.875021239   0.917109637
B   0.416227161   0.749888356   0.917685716
B   0.708780741   0.12509242   0.083184126
B   0.583865742   0.0   0.083124392
B   0.541666268   0.124999987   0.250021164
B   0.666666307   0.0   0.250021156
B   0.708333761   0.124999991   0.416645829
B   0.583333741   0.0   0.416645824
B   0.541245953   0.125044574   0.583819925
B   0.666227808   0.0   0.583858315
B   0.708705617   0.123835822   0.750588936
B   0.58346048   0.0   0.750483263
B   0.541566631   0.125541292   0.916934211
B   0.666432456   0.0   0.919287834
B   0.708760387   0.375186343   0.082153642
B   0.583902899   0.250090911   0.082707601
B   0.541666277   0.374999991   0.250021161
B   0.666666304   0.249999988   0.250021156
B   0.708333757   0.374999994   0.416645821
B   0.583333748   0.24999998   0.416645819
B   0.541237388   0.375073525   0.583160653
B   0.666212113   0.250069686   0.583255698
B   0.710490952   0.369644571   0.745796919
B   0.583293223   0.249424141   0.748711543
B   0.54132264   0.376292357   0.917662105
B   0.666834814   0.250796555   0.918013268
B   0.708760387   0.624813657   0.082153642
B   0.584003292   0.5   0.082027153
B   0.541666277   0.625000009   0.250021161
B   0.666666304   0.5   0.250021156
B   0.708333757   0.625000006   0.416645821
B   0.583333738   0.5   0.416645816
B   0.541237388   0.624926475   0.583160653
B   0.666173379   0.5   0.58267314
B   0.710490952   0.630355429   0.745796919
B   0.580116442   0.5   0.746474261
B   0.54132264   0.623707643   0.917662105
B   0.666131399   0.5   0.895104939
B   0.708780741   0.87490758   0.083184126
B   0.583902899   0.749909089   0.082707601
B   0.541666268   0.875000013   0.250021164
B   0.666666304   0.750000012   0.250021156
B   0.708333761   0.875000009   0.416645829
B   0.583333748   0.75000002   0.416645819
B   0.541245953   0.874955426   0.583819925
B   0.666212113   0.749930314   0.583255698
B   0.708705617   0.876164178   0.750588936
B   0.583293223   0.750575859   0.748711543
B   0.541566631   0.874458708   0.916934211
B   0.666834814   0.749203445   0.918013268
B   0.958791658   0.125027075   0.083279867
B   0.83375756   0.0   0.083525182
B   0.79166631   0.124999992   0.250021153
B   0.916666295   0.0   0.250021162
B   0.958333726   0.124999979   0.416645818
B   0.83333376   0.0   0.416645837
B   0.791166465   0.125006725   0.583836812
B   0.916135728   0.0   0.584086594
B   0.959197076   0.124711733   0.750871669
B   0.834007859   0.0   0.751408919
B   0.791261791   0.124942563   0.919463017
B   0.916194991   0.0   0.918089337
B   0.958797836   0.375029021   0.082975297
B   0.833749508   0.250104782   0.083063937
B   0.791666315   0.374999991   0.250021158
B   0.916666295   0.249999973   0.25002116
B   0.958333718   0.374999977   0.416645816
B   0.833333757   0.249999977   0.41664583
B   0.791100433   0.375011181   0.583216302
B   0.916110448   0.250003861   0.58393647
B   0.959062731   0.374884558   0.750277143
B   0.834721128   0.249139183   0.750343992
B   0.790436113   0.374514205   0.917731932
B   0.916035746   0.249908668   0.918105443
B   0.958797836   0.624970979   0.082975297
B   0.833740272   0.5   0.082655392
B   0.791666315   0.625000009   0.250021158
B   0.916666298   0.5   0.250021159
B   0.958333718   0.625000023   0.416645816
B   0.833333758   0.5   0.416645824
B   0.791100433   0.624988819   0.583216302
B   0.916083883   0.5   0.583785914
B   0.959062731   0.625115442   0.750277143
B   0.834231062   0.5   0.748741923
B   0.790436113   0.625485795   0.917731932
B   0.915568368   0.5   0.916743966
B   0.958791658   0.874972925   0.083279867
B   0.833749508   0.749895218   0.083063937
B   0.79166631   0.875000008   0.250021153
B   0.916666295   0.750000027   0.25002116
B   0.958333726   0.875000021   0.416645818
B   0.833333757   0.750000023   0.41664583
B   0.791166465   0.874993275   0.583836812
B   0.916110448   0.749996139   0.58393647
B   0.959197076   0.875288267   0.750871669
B   0.834721128   0.750860817   0.750343992
B   0.791261791   0.875057437   0.919463017
B   0.916035746   0.750091332   0.918105443
N   0.208266342   0.125000008   0.250044847
N   0.083266387   0.0   0.250044881
N   0.042277734   0.125003664   0.083272662
N   0.167275647   0.0   0.083122332
N   0.207768966   0.125000892   0.583793796
N   0.082774752   0.0   0.583874736
N   0.041733659   0.124999985   0.416622106
N   0.166733642   0.0   0.416622112
N   0.207709552   0.124994718   0.917103397
N   0.082838119   0.0   0.917160986
N   0.04252672   0.124871341   0.750321064
N   0.167123695   0.0   0.749930453
N   0.208266332   0.375   0.250044851
N   0.083266391   0.249999993   0.250044862
N   0.04229017   0.37500435   0.083124287
N   0.167282715   0.250004013   0.083106411
N   0.207756168   0.375000211   0.583741316
N   0.082767091   0.250004365   0.583829564
N   0.041733677   0.374999984   0.416622107
N   0.166733643   0.249999991   0.416622112
N   0.207611705   0.374998452   0.916942541
N   0.082754318   0.250023857   0.917116903
N   0.042445337   0.37497413   0.750025856
N   0.16711357   0.249970924   0.749879492
N   0.208266332   0.625   0.250044851
N   0.083266392   0.5   0.250044859
N   0.04229017   0.62499565   0.083124287
N   0.167290159   0.5   0.083093854
N   0.207756168   0.624999789   0.583741316
N   0.082759725   0.5   0.583777432
N   0.041733677   0.625000016   0.416622107
N   0.166733638   0.5   0.416622115
N   0.207611705   0.625001548   0.916942541
N   0.082697297   0.5   0.916880689
N   0.042445337   0.62502587   0.750025856
N   0.167108669   0.5   0.749822626
N   0.208266342   0.874999992   0.250044847
N   0.083266391   0.750000007   0.250044862
N   0.042277734   0.874996336   0.083272662
N   0.167282715   0.749995987   0.083106411
N   0.207768966   0.874999108   0.583793796
N   0.082767091   0.749995635   0.583829564
N   0.041733659   0.875000015   0.416622106
N   0.166733643   0.750000009   0.416622112
N   0.207709552   0.875005282   0.917103397
N   0.082754318   0.749976143   0.917116903
N   0.04252672   0.875128659   0.750321064
N   0.16711357   0.750029076   0.749879492
N   0.458266378   0.125000005   0.250044863
N   0.33326637   0.0   0.250044867
N   0.292268203   0.125001594   0.083194917
N   0.417247452   0.0   0.083286399
N   0.457784219   0.125005354   0.583740048
N   0.332777298   0.0   0.58380617
N   0.291733627   0.125000014   0.416622136
N   0.416733665   0.0   0.416622118
N   0.457751124   0.125003754   0.917113156
N   0.332738475   0.0   0.917161726
N   0.291702863   0.12480302   0.749912514
N   0.416598433   0.0   0.749963993
N   0.458266377   0.375000027   0.250044864
N   0.333266366   0.250000003   0.250044874
N   0.292279834   0.375001435   0.083194946
N   0.417259741   0.249988976   0.083250249
N   0.457753452   0.375008376   0.583332939
N   0.332764135   0.250002793   0.583738965
N   0.291733646   0.374999986   0.416622131
N   0.416733654   0.250000002   0.416622121
N   0.457267841   0.374860787   0.9187931
N   0.332565881   0.249935778   0.917333103
N   0.29174478   0.374903666   0.749899065
N   0.416138639   0.249238677   0.749852227
N   0.458266377   0.624999973   0.250044864
N   0.333266374   0.5   0.250044874
N   0.292279834   0.624998565   0.083194946
N   0.4172706   0.5   0.083177369
N   0.457753452   0.624991624   0.583332939
N   0.332746198   0.5   0.583639044
N   0.291733646   0.625000014   0.416622131
N   0.416733666   0.5   0.416622117
N   0.457267841   0.625139213   0.9187931
N   0.332432121   0.5   0.917633979
N   0.29174478   0.625096334   0.749899065
N   0.416307812   0.5   0.749762005
N   0.458266378   0.874999995   0.250044863
N   0.333266366   0.749999997   0.250044874
N   0.292268203   0.874998406   0.083194917
N   0.417259741   0.750011024   0.083250249
N   0.457784219   0.874994646   0.583740048
N   0.332764135   0.749997207   0.583738965
N   0.291733627   0.874999986   0.416622136
N   0.416733654   0.749999998   0.416622121
N   0.457751124   0.874996246   0.917113156
N   0.332565881   0.750064222   0.917333103
N   0.291702863   0.87519698   0.749912514
N   0.416138639   0.750761323   0.749852227
N   0.708266388   0.124999997   0.250044835
N   0.583266356   0.0   0.250044858
N   0.542237361   0.124989565   0.083277228
N   0.667229894   0.0   0.083681968
N   0.707807885   0.124985247   0.583498775
N   0.582798323   0.0   0.583733747
N   0.541733625   0.124999996   0.416622121
N   0.666733652   0.0   0.416622111
N   0.708018719   0.124518505   0.920091526
N   0.58282946   0.0   0.917683385
N   0.541540855   0.124567448   0.749750969
N   0.666926275   0.0   0.751055396
N   0.708266364   0.374999988   0.250044842
N   0.583266356   0.250000006   0.250044855
N   0.542251377   0.374973766   0.082880176
N   0.667231649   0.249993426   0.083098225
N   0.707789592   0.374956193   0.582203483
N   0.582784041   0.250005624   0.583197251
N   0.541733631   0.375000029   0.416622116
N   0.666733649   0.250000004   0.416622103
N   0.708430921   0.373166104   0.917004087
N   0.582789178   0.250071838   0.916416076
N   0.54007961   0.373107139   0.748054245
N   0.666958072   0.246763579   0.748053253
N   0.708266364   0.625000012   0.250044842
N   0.583266346   0.5   0.250044852
N   0.542251377   0.625026234   0.082880176
N   0.667248736   0.5   0.08289757
N   0.707789592   0.625043807   0.582203483
N   0.582740411   0.5   0.582131446
N   0.541733631   0.624999971   0.416622116
N   0.666733646   0.5   0.416622098
N   0.708430921   0.626833896   0.917004087
N   0.581478493   0.5   0.917222759
N   0.54007961   0.626892861   0.748054245
N   0.708266388   0.875000003   0.250044835
N   0.583266356   0.749999994   0.250044855
N   0.542237361   0.875010435   0.083277228
N   0.667231649   0.750006574   0.083098225
N   0.707807885   0.875014753   0.583498775
N   0.582784041   0.749994376   0.583197251
N   0.541733625   0.875000004   0.416622121
N   0.666733649   0.749999996   0.416622103
N   0.708018719   0.875481495   0.920091526
N   0.582789178   0.749928162   0.916416076
N   0.541540855   0.875432552   0.749750969
N   0.666958072   0.753236421   0.748053253
N   0.958266347   0.124999972   0.250044866
N   0.833266371   0.0   0.250044859
N   0.792252964   0.125005244   0.083716045
N   0.917267335   0.0   0.08366515
N   0.957785449   0.125002481   0.583918374
N   0.832806604   0.0   0.583835804
N   0.791733669   0.125   0.416622143
N   0.916733627   0.0   0.416622114
N   0.957983721   0.124931931   0.917785011
N   0.83312261   0.0   0.918896625
N   0.792535756   0.124536471   0.750910456
N   0.917597875   0.0   0.751060757
N   0.958266347   0.374999988   0.250044864
N   0.833266364   0.249999982   0.250044854
N   0.792267495   0.375014706   0.082989043
N   0.917276281   0.25001175   0.08339965
N   0.957767213   0.375003979   0.583760579
N   0.832787522   0.249983984   0.583496767
N   0.791733667   0.374999996   0.41662213
N   0.916733624   0.249999969   0.416622111
N   0.957787139   0.375001537   0.917225993
N   0.833144488   0.249516907   0.919427391
N   0.794007696   0.373337915   0.748192185
N   0.918043092   0.249464279   0.750516271
N   0.958266347   0.625000012   0.250044864
N   0.833266368   0.5   0.250044856
N   0.792267495   0.624985294   0.082989043
N   0.917283567   0.5   0.083102131
N   0.957767213   0.624996021   0.583760579
N   0.832767207   0.5   0.583159683
N   0.791733667   0.625000004   0.41662213
N   0.916733625   0.5   0.41662211
N   0.957787139   0.624998463   0.917225993
N   0.832753896   0.5   0.916200227
N   0.794007696   0.626662085   0.748192185
N   0.91774016   0.5   0.749740223
N   0.958266347   0.875000028   0.250044866
N   0.833266364   0.750000018   0.250044854
N   0.792252964   0.874994756   0.083716045
N   0.917276281   0.74998825   0.08339965
N   0.957785449   0.874997519   0.583918374
N   0.832787522   0.750016016   0.583496767
N   0.791733669   0.875   0.416622143
N   0.916733624   0.750000031   0.416622111
N   0.957983721   0.875068069   0.917785011
N   0.833144488   0.750483093   0.919427391
N   0.792535756   0.875463529   0.750910456
N   0.918043092   0.750535721   0.750516271
C   0.667204895   0.5   0.736478563
C   0.66553959   0.5   0.811505985
