&CONTROL
calculation = 'scf'
restart_mode = 'from_scratch'
prefix = 'h-BN'
pseudo_dir = '/home/maruachi/ONCV_PP'
outdir = './out/'
wf_collect = .FALSE.
verbosity = 'high'
/
&SYSTEM
ibrav = 0
nat = 385
ntyp = 3
ecutwfc = 85
nosym = .true.
occupations = 'fixed'
nspin = 2
tot_magnetization = 2.0
nbnd = 820
/
&ELECTRONS
electron_maxstep = 400
conv_thr = 1.0d-7
mixing_mode = 'plain'
mixing_beta = 0.7
diagonalization = 'david'
diago_full_acc = .True.
startingpot = 'atomic'
startingwfc = 'atomic+random'
/
ATOMIC_SPECIES
B   10.8110  B_ONCV_PBE-1.0.upf
N   14.5341  N_ONCV_PBE-1.0.upf
C   14.5341  C_ONCV_PBE-1.0.upf
CELL_PARAMETERS angstrom
17.3593340     0.0000000     0.0000000
 0.0000000    10.0351185     0.0000000
 0.0000000     0.0000000    19.6549149
K_POINTS gamma
ATOMIC_POSITIONS (crystal)
B   0.208906007   0.12500376149999998   0.08289099250000001
B   0.0838549465   0.0   0.0828926255
B   0.041666294   0.124999977   0.250021169
B   0.166666254   0.0   0.250021164
B   0.208333702   0.124999997   0.416645819
B   0.083333724   0.0   0.416645809
B   0.041109563   0.125002921   0.583852399
B   0.166149582   0.0   0.583745661
B   0.208543307   0.124945061   0.7498113635
B   0.0839565025   0.0   0.7500823005
B   0.041186802   0.125000094   0.916984213
B   0.166181771   0.0   0.9166544375000001
B   0.20891905500000002   0.3750040475   0.082931914
B   0.08386202200000001   0.25001172400000005   0.0828627935
B   0.0416663   0.374999977   0.250021162
B   0.166666257   0.24999998   0.250021159
B   0.208333693   0.374999985   0.416645819
B   0.083333722   0.249999977   0.416645813
B   0.041096647   0.37500324   0.5838562065
B   0.166142036   0.25000882700000004   0.583770238
B   0.2086676195   0.37501762400000005   0.7498318845
B   0.08387667500000001   0.2499961585   0.749981781
B   0.041009228999999994   0.37503136049999997   0.916829814
B   0.166138941   0.2500107335   0.916701225
B   0.20891905500000002   0.6249959525   0.082931914
B   0.0838684695   0.5   0.082827634
B   0.0416663   0.625000023   0.250021162
B   0.166666255   0.5   0.250021156
B   0.208333693   0.625000015   0.416645819
B   0.083333715   0.5   0.416645817
B   0.041096647   0.6249967599999999   0.5838562065
B   0.166135127   0.5   0.583797611
B   0.2086676195   0.624982376   0.7498318845
B   0.0838669735   0.5   0.749949245
B   0.041009228999999994   0.6249686395   0.916829814
B   0.166088053   0.5   0.916712361
B   0.208906007   0.8749962385000001   0.08289099250000001
B   0.08386202200000001   0.7499882760000001   0.0828627935
B   0.041666294   0.875000023   0.250021169
B   0.166666257   0.75000002   0.250021159
B   0.208333702   0.875000003   0.416645819
B   0.083333722   0.750000023   0.416645813
B   0.041109563   0.874997079   0.583852399
B   0.166142036   0.749991173   0.583770238
B   0.208543307   0.875054939   0.7498113635
B   0.08387667500000001   0.7500038415   0.749981781
B   0.041186802   0.874999906   0.916984213
B   0.166138941   0.7499892665000001   0.916701225
B   0.458940236   0.1250035845   0.08341307049999999
B   0.333933661   0.0   0.083094574
B   0.291666255   0.124999991   0.250021165
B   0.416666258   0.0   0.250021166
B   0.458333736   0.124999981   0.41664582
B   0.333333706   0.0   0.416645821
B   0.291192112   0.1250157655   0.583458957
B   0.4162298085   0.0   0.583097633
B   0.45822492950000004   0.124752248   0.74816227
B   0.33336776700000004   0.0   0.749300878
B   0.2912121425   0.124949358   0.9166498255
B   0.41642155000000003   0.0   0.9168069864999999
B   0.45898753999999997   0.374999925   0.08357708350000001
B   0.3339506135   0.250000871   0.08321547800000001
B   0.291666258   0.374999988   0.250021161
B   0.416666257   0.249999981   0.250021165
B   0.458333725   0.374999994   0.416645816
B   0.333333701   0.249999985   0.41664582
B   0.291178632   0.375018054   0.5835623845
B   0.4162223225   0.2500685165   0.5832587965
B   0.4577409865   0.3737811435   0.747704889
B   0.33314947100000003   0.2496316385   0.7490445505000001
B   0.291151827   0.37497335099999995   0.917079361
B   0.41618233250000003   0.2499228035   0.9179575035
B   0.45898753999999997   0.625000075   0.08357708350000001
B   0.333968811   0.5   0.083310472
B   0.291666258   0.625000012   0.250021161
B   0.416666269   0.5   0.250021164
B   0.458333725   0.625000006   0.416645816
B   0.333333704   0.5   0.416645818
B   0.291178632   0.624981946   0.5835623845
B   0.416214965   0.5   0.5833963595
B   0.4577409865   0.6262188565   0.747704889
B   0.33354486299999997   0.5   0.749466522
B   0.291151827   0.625026649   0.917079361
B   0.4161241055   0.5   0.919312653
B   0.458940236   0.8749964155000001   0.08341307049999999
B   0.3339506135   0.749999129   0.08321547800000001
B   0.291666255   0.875000009   0.250021165
B   0.416666257   0.750000019   0.250021165
B   0.458333736   0.875000019   0.41664582
B   0.333333701   0.750000015   0.41664582
B   0.291192112   0.8749842345000001   0.583458957
B   0.4162223225   0.7499314834999999   0.5832587965
B   0.45822492950000004   0.8752477519999999   0.74816227
B   0.33314947100000003   0.7503683615000001   0.7490445505000001
B   0.2912121425   0.8750506419999999   0.9166498255
B   0.41618233250000003   0.7500771965   0.9179575035
B   0.7088052715   0.125078376   0.083238423
B   0.5838784875   0.0   0.0834366715
B   0.541666268   0.124999987   0.250021164
B   0.666666307   0.0   0.250021156
B   0.708333761   0.124999991   0.416645829
B   0.583333741   0.0   0.416645824
B   0.5412259985000001   0.1250652155   0.583076659
B   0.6661776955000001   0.0   0.5832496885
B   0.7087010545   0.1239149205   0.7494381960000001
B   0.5833390814999999   0.0   0.748477646
B   0.5415545079999999   0.1253943275   0.917467689
B   0.666480222   0.0   0.9188399215
B   0.7087974619999999   0.375161146   0.0825593825
B   0.5839165145   0.250051982   0.08334388000000001
B   0.541666277   0.374999991   0.250021161
B   0.666666304   0.249999988   0.250021156
B   0.708333757   0.374999994   0.416645821
B   0.583333748   0.24999998   0.416645819
B   0.5412140544999999   0.3750988505   0.5835409469999999
B   0.6661452405   0.250069443   0.5833262029999999
B   0.7106394885   0.36970966699999996   0.748465149
B   0.5829781835   0.249829482   0.7474260925
B   0.54100248   0.37530439800000004   0.9209653170000001
B   0.6669156   0.25065780299999996   0.918619646
B   0.7087974619999999   0.624838854   0.0825593825
B   0.584010138   0.5   0.08291951950000001
B   0.541666277   0.625000009   0.250021161
B   0.666666304   0.5   0.250021156
B   0.708333757   0.625000006   0.416645821
B   0.583333738   0.5   0.416645816
B   0.5412140544999999   0.6249011495   0.5835409469999999
B   0.666076559   0.5   0.5835036625000001
B   0.7106394885   0.630290333   0.748465149
B   0.5791457635   0.5   0.754782872
B   0.54100248   0.6246956020000001   0.9209653170000001
B   0.6653450135   0.5   0.899948382
B   0.7088052715   0.874921624   0.083238423
B   0.5839165145   0.749948018   0.08334388000000001
B   0.541666268   0.875000013   0.250021164
B   0.666666304   0.750000012   0.250021156
B   0.708333761   0.875000009   0.416645829
B   0.583333748   0.75000002   0.416645819
B   0.5412259985000001   0.8749347845   0.583076659
B   0.6661452405   0.749930557   0.5833262029999999
B   0.7087010545   0.8760850795   0.7494381960000001
B   0.5829781835   0.750170518   0.7474260925
B   0.5415545079999999   0.8746056725   0.917467689
B   0.6669156   0.749342197   0.918619646
B   0.9588067755   0.12502267299999997   0.0830407695
B   0.8337779175   0.0   0.08325354900000001
B   0.79166631   0.124999992   0.250021153
B   0.916666295   0.0   0.250021162
B   0.958333726   0.124999979   0.416645818
B   0.83333376   0.0   0.416645837
B   0.791112466   0.125012128   0.5835846490000001
B   0.9160984130000001   0.0   0.5838070769999999
B   0.9592789100000001   0.124676651   0.7502064475
B   0.8340600380000001   0.0   0.7503334134999999
B   0.791338787   0.124944162   0.9187058164999999
B   0.9162588455   0.0   0.917577322
B   0.9588149355   0.37502500250000004   0.08286610650000001
B   0.8337749975   0.2500921245   0.082966991
B   0.791666315   0.374999991   0.250021158
B   0.916666295   0.249999973   0.25002116
B   0.958333718   0.374999977   0.416645816
B   0.833333757   0.249999977   0.41664583
B   0.7910557389999999   0.375016075   0.5835596755
B   0.916077218   0.25000457649999996   0.5837796
B   0.9590664335   0.3748801375   0.7497986275
B   0.8348130629999999   0.24889586149999998   0.7493381205
B   0.7906179105   0.374574752   0.9176659205
B   0.916122247   0.249911409   0.9176545620000001
B   0.9588149355   0.6249749975000001   0.08286610650000001
B   0.83377044   0.5   0.0827143415
B   0.791666315   0.625000009   0.250021158
B   0.916666298   0.5   0.250021159
B   0.958333718   0.625000023   0.416645816
B   0.833333758   0.5   0.416645824
B   0.7910557389999999   0.624983925   0.5835596755
B   0.9160571665   0.5   0.5837638270000001
B   0.9590664335   0.6251198625000001   0.7497986275
B   0.8341400809999999   0.5   0.7485896304999999
B   0.7906179105   0.625425248   0.9176659205
B   0.915714065   0.5   0.9166281535
B   0.9588067755   0.8749773270000001   0.0830407695
B   0.8337749975   0.7499078754999999   0.082966991
B   0.79166631   0.875000008   0.250021153
B   0.916666295   0.750000027   0.25002116
B   0.958333726   0.875000021   0.416645818
B   0.833333757   0.750000023   0.41664583
B   0.791112466   0.8749878719999999   0.5835846490000001
B   0.916077218   0.7499954234999999   0.5837796
B   0.9592789100000001   0.875323349   0.7502064475
B   0.8348130629999999   0.7511041384999999   0.7493381205
B   0.791338787   0.875055838   0.9187058164999999
B   0.916122247   0.750088591   0.9176545620000001
N   0.208266342   0.125000008   0.250044847
N   0.083266387   0.0   0.250044881
N   0.0422823085   0.12500259349999998   0.0830776345
N   0.167281276   0.0   0.082974724
N   0.207738894   0.125000287   0.5835399095
N   0.08274532849999999   0.0   0.5837154794999999
N   0.041733659   0.124999985   0.416622106
N   0.166733642   0.0   0.416622112
N   0.207752229   0.12498355550000001   0.9166985830000001
N   0.082875805   0.0   0.9169263905
N   0.042562732   0.124872055   0.750015557
N   0.1670832585   0.0   0.7498341295
N   0.208266332   0.375   0.250044851
N   0.083266391   0.249999993   0.250044862
N   0.042295943   0.3750032035   0.08300394999999999
N   0.167288839   0.25000326900000003   0.08299313550000001
N   0.207722627   0.3750004235   0.5835909635000001
N   0.0827373055   0.25000205   0.58371331
N   0.041733677   0.374999984   0.416622107
N   0.166733643   0.249999991   0.416622112
N   0.2077019575   0.37499758299999997   0.9168058285
N   0.082816033   0.2500257185   0.916933372
N   0.0424270665   0.37498546600000005   0.749830419
N   0.16709418799999998   0.24999982999999998   0.749768244
N   0.208266332   0.625   0.250044851
N   0.083266392   0.5   0.250044859
N   0.042295943   0.6249967965000001   0.08300394999999999
N   0.167296742   0.5   0.08300704249999999
N   0.207722627   0.6249995765   0.5835909635000001
N   0.082728907   0.5   0.5837188145000001
N   0.041733677   0.625000016   0.416622107
N   0.166733638   0.5   0.416622115
N   0.2077019575   0.6250024169999999   0.9168058285
N   0.08277701900000001   0.5   0.916809043
N   0.0424270665   0.625014534   0.749830419
N   0.1670878805   0.5   0.7498446625
N   0.208266342   0.874999992   0.250044847
N   0.083266391   0.750000007   0.250044862
N   0.0422823085   0.8749974065   0.0830776345
N   0.167288839   0.749996731   0.08299313550000001
N   0.207738894   0.874999713   0.5835399095
N   0.0827373055   0.74999795   0.58371331
N   0.041733659   0.875000015   0.416622106
N   0.166733643   0.750000009   0.416622112
N   0.207752229   0.8750164445   0.9166985830000001
N   0.082816033   0.7499742815   0.916933372
N   0.042562732   0.875127945   0.750015557
N   0.16709418799999998   0.7500001700000001   0.749768244
N   0.458266378   0.125000005   0.250044863
N   0.33326637   0.0   0.250044867
N   0.29227486550000004   0.12500040499999998   0.083162454
N   0.4172573045   0.0   0.083460802
N   0.4577591345   0.12500533400000002   0.582812355
N   0.3327475325   0.0   0.583140667
N   0.291733627   0.125000014   0.416622136
N   0.416733665   0.0   0.416622118
N   0.4577925185   0.124996313   0.917270576
N   0.3327839675   0.0   0.9167177854999999
N   0.29159165649999996   0.1247593535   0.749425597
N   0.4164801955   0.0   0.7487036935
N   0.458266377   0.375000027   0.250044864
N   0.333266366   0.250000003   0.250044874
N   0.29228793350000004   0.37500102   0.083282564
N   0.4172660815   0.249983049   0.083680262
N   0.4577230125   0.3750114205   0.583040965
N   0.33273029200000004   0.250004531   0.5832101405
N   0.291733646   0.374999986   0.416622131
N   0.416733654   0.250000002   0.416622121
N   0.4572979975   0.37472232699999997   0.920244603
N   0.332617681   0.249901661   0.9171337325
N   0.291721009   0.3749103985   0.7494708990000001
N   0.41593650449999997   0.2489535695   0.747799053
N   0.458266377   0.624999973   0.250044864
N   0.333266374   0.5   0.250044874
N   0.29228793350000004   0.62499898   0.083282564
N   0.417278779   0.5   0.083830496
N   0.4577230125   0.6249885795   0.583040965
N   0.332712659   0.5   0.5833138615
N   0.291733646   0.625000014   0.416622131
N   0.416733666   0.5   0.416622117
N   0.4572979975   0.625277673   0.920244603
N   0.3325728415   0.5   0.917720051
N   0.291721009   0.6250896015   0.7494708990000001
N   0.416333698   0.5   0.7488226335
N   0.458266378   0.874999995   0.250044863
N   0.333266366   0.749999997   0.250044874
N   0.29227486550000004   0.874999595   0.083162454
N   0.4172660815   0.750016951   0.083680262
N   0.4577591345   0.874994666   0.582812355
N   0.33273029200000004   0.749995469   0.5832101405
N   0.291733627   0.874999986   0.416622136
N   0.416733654   0.749999998   0.416622121
N   0.4577925185   0.875003687   0.917270576
N   0.332617681   0.750098339   0.9171337325
N   0.29159165649999996   0.8752406465   0.749425597
N   0.41593650449999997   0.7510464305   0.747799053
N   0.708266388   0.124999997   0.250044835
N   0.583266356   0.0   0.250044858
N   0.5422496715   0.12498207   0.08371282699999999
N   0.667243883   0.0   0.083707586
N   0.7077806945   0.1249941825   0.5831222635
N   0.5827828580000001   0.0   0.582758248
N   0.541733625   0.124999996   0.416622121
N   0.666733652   0.0   0.416622111
N   0.7080700725   0.12453299100000001   0.9195164225
N   0.582873128   0.0   0.9176419255
N   0.5415079245000001   0.12436695149999999   0.7476277665
N   0.666972226   0.0   0.7493822320000001
N   0.708266364   0.374999988   0.250044842
N   0.583266356   0.250000006   0.250044855
N   0.542257054   0.37495454   0.083825997
N   0.6672471405   0.2499928595   0.083432265
N   0.707764133   0.3749884725   0.5829813260000001
N   0.5827764365   0.249991534   0.5829015835
N   0.541733631   0.375000029   0.416622116
N   0.666733649   0.250000004   0.416622103
N   0.7085199950000001   0.3732477045   0.9176831165
N   0.5828185765   0.25004803   0.9184885855
N   0.5397867065   0.37214267749999996   0.7463554864999999
N   0.667113152   0.247129748   0.748205689
N   0.708266364   0.625000012   0.250044842
N   0.583266346   0.5   0.250044852
N   0.542257054   0.6250454599999999   0.083825997
N   0.6672766145   0.5   0.08342679550000001
N   0.707764133   0.6250115275   0.5829813260000001
N   0.5827396385   0.5   0.5828790255
N   0.541733631   0.624999971   0.416622116
N   0.666733646   0.5   0.416622098
N   0.7085199950000001   0.6267522955   0.9176831165
N   0.5813792369999999   0.5   0.924575224
N   0.5397867065   0.6278573224999999   0.7463554864999999
N   0.708266388   0.875000003   0.250044835
N   0.583266356   0.749999994   0.250044855
N   0.5422496715   0.87501793   0.08371282699999999
N   0.6672471405   0.7500071405   0.083432265
N   0.7077806945   0.8750058175   0.5831222635
N   0.5827764365   0.7500084659999999   0.5829015835
N   0.541733625   0.875000004   0.416622121
N   0.666733649   0.749999996   0.416622103
N   0.7080700725   0.8754670090000001   0.9195164225
N   0.5828185765   0.74995197   0.9184885855
N   0.5415079245000001   0.8756330485   0.7476277665
N   0.667113152   0.752870252   0.748205689
N   0.958266347   0.124999972   0.250044866
N   0.833266371   0.0   0.250044859
N   0.792261961   0.1250039445   0.08349729750000001
N   0.9172718470000001   0.0   0.083349017
N   0.957754481   0.1250007625   0.5836834055
N   0.8327717985   0.0   0.5834925475
N   0.791733669   0.125   0.416622143
N   0.916733627   0.0   0.416622114
N   0.9580246605   0.1249375635   0.9174411849999999
N   0.8331568195   0.0   0.9181766650000001
N   0.7925879315   0.1244865285   0.7498658389999999
N   0.9176539994999999   0.0   0.750239494
N   0.958266347   0.374999988   0.250044864
N   0.833266364   0.249999982   0.250044854
N   0.792284227   0.3750120185   0.083069431
N   0.917283616   0.250009216   0.08320723
N   0.957740838   0.37500214499999995   0.5836560635
N   0.8327602279999999   0.2499913365   0.583424288
N   0.791733667   0.374999996   0.41662213
N   0.916733624   0.249999969   0.416622111
N   0.957858127   0.375000088   0.9170377875
N   0.8331883204999999   0.2495438465   0.9187644705
N   0.7940130864999999   0.373102722   0.7478782504999999
N   0.918111339   0.24938771650000002   0.7497487825
N   0.958266347   0.625000012   0.250044864
N   0.833266368   0.5   0.250044856
N   0.792284227   0.6249879815   0.083069431
N   0.9172945015   0.5   0.0830260355
N   0.957740838   0.6249978549999999   0.5836560635
N   0.8327492265   0.5   0.583392927
N   0.791733667   0.625000004   0.41662213
N   0.916733625   0.5   0.41662211
N   0.957858127   0.624999912   0.9170377875
N   0.832849935   0.5   0.9163652915
N   0.7940130864999999   0.626897278   0.7478782504999999
N   0.9176874230000001   0.5   0.7493631860000001
N   0.958266347   0.875000028   0.250044866
N   0.833266364   0.750000018   0.250044854
N   0.792261961   0.8749960555   0.08349729750000001
N   0.917283616   0.749990784   0.08320723
N   0.957754481   0.8749992375   0.5836834055
N   0.8327602279999999   0.7500086635000001   0.583424288
N   0.791733669   0.875   0.416622143
N   0.916733624   0.750000031   0.416622111
N   0.9580246605   0.8750624364999999   0.9174411849999999
N   0.8331883204999999   0.7504561535000001   0.9187644705
N   0.7925879315   0.8755134715   0.7498658389999999
N   0.918111339   0.7506122835   0.7497487825
C   0.6681515035000001   0.5   0.7480032815
C   0.644870537   0.5   0.8204421205000001
