&CONTROL
calculation = 'scf'
restart_mode = 'from_scratch'
prefix = 'h-BN'
pseudo_dir = '/home/maruachi/ONCV_PP'
outdir = './out/'
wf_collect = .FALSE.
verbosity = 'high'
/
&SYSTEM
ibrav = 0
nat = 385
ntyp = 3
ecutwfc = 85
nosym = .true.
occupations = 'fixed'
nspin = 2
tot_magnetization = 2.0
nbnd = 820
/
&ELECTRONS
electron_maxstep = 400
conv_thr = 1.0d-7
mixing_mode = 'plain'
mixing_beta = 0.7
diagonalization = 'david'
diago_full_acc = .True.
startingpot = 'atomic'
startingwfc = 'atomic+random'
/
ATOMIC_SPECIES
B   10.8110  B_ONCV_PBE-1.0.upf
N   14.5341  N_ONCV_PBE-1.0.upf
C   14.5341  C_ONCV_PBE-1.0.upf
CELL_PARAMETERS angstrom
17.3593340     0.0000000     0.0000000
 0.0000000    10.0351185     0.0000000
 0.0000000     0.0000000    19.6549149
K_POINTS gamma
ATOMIC_POSITIONS (crystal)
B   0.208905479   0.12500112   0.082787646
B   0.083862107   0.0   0.082712383
B   0.041666294   0.124999977   0.250021169
B   0.166666254   0.0   0.250021164
B   0.208333702   0.124999997   0.416645819
B   0.083333724   0.0   0.416645809
B   0.041085917   0.125002298   0.583674415
B   0.166137241   0.0   0.583540112
B   0.208519395   0.124942776   0.749585227
B   0.083988767   0.0   0.749838914
B   0.041250293   0.125005268   0.916712428
B   0.1662192   0.0   0.91626808
B   0.208916231   0.375001624   0.082883149
B   0.083869049   0.2500082   0.082723195
B   0.0416663   0.374999977   0.250021162
B   0.166666257   0.24999998   0.250021159
B   0.208333693   0.374999985   0.416645819
B   0.083333722   0.249999977   0.416645813
B   0.041076023   0.375002449   0.583760872
B   0.166129203   0.250011919   0.583619303
B   0.208723439   0.375041981   0.74967173
B   0.083905481   0.250024055   0.74976277
B   0.041102993   0.375031668   0.916666686
B   0.166205753   0.250003189   0.916431066
B   0.208916231   0.624998376   0.082883149
B   0.083874927   0.5   0.08272388
B   0.0416663   0.625000023   0.250021162
B   0.166666255   0.5   0.250021156
B   0.208333693   0.625000015   0.416645819
B   0.083333715   0.5   0.416645817
B   0.041076023   0.624997551   0.583760872
B   0.166121699   0.5   0.583709157
B   0.208723439   0.624958019   0.74967173
B   0.083889539   0.5   0.749840434
B   0.041102993   0.624968332   0.916666686
B   0.166174162   0.5   0.916580666
B   0.208905479   0.87499888   0.082787646
B   0.083869049   0.7499918   0.082723195
B   0.041666294   0.875000023   0.250021169
B   0.166666257   0.75000002   0.250021159
B   0.208333702   0.875000003   0.416645819
B   0.083333722   0.750000023   0.416645813
B   0.041085917   0.874997702   0.583674415
B   0.166129203   0.749988081   0.583619303
B   0.208519395   0.875057224   0.749585227
B   0.083905481   0.749975945   0.74976277
B   0.041250293   0.874994732   0.916712428
B   0.166205753   0.749996811   0.916431066
B   0.4589404   0.124992227   0.083791886
B   0.333930433   0.0   0.083133965
B   0.291666255   0.124999991   0.250021165
B   0.416666258   0.0   0.250021166
B   0.458333736   0.124999981   0.41664582
B   0.333333706   0.0   0.416645821
B   0.291186854   0.12502348   0.582992293
B   0.416224757   0.0   0.582233611
B   0.4581775   0.124698646   0.746244692
B   0.33332787   0.0   0.748506383
B   0.291231974   0.124919955   0.916190014
B   0.41641448   0.0   0.916567515
B   0.458971169   0.37498123   0.084356101
B   0.333943329   0.249992143   0.083384913
B   0.291666258   0.374999988   0.250021161
B   0.416666257   0.249999981   0.250021165
B   0.458333725   0.374999994   0.416645816
B   0.333333701   0.249999985   0.41664582
B   0.291172455   0.37502678   0.583269465
B   0.416218919   0.250099675   0.582707917
B   0.457881936   0.373449987   0.745755112
B   0.333114452   0.249553343   0.747997967
B   0.291219852   0.374953426   0.916925508
B   0.416137504   0.249733963   0.918229291
B   0.458971169   0.62501877   0.084356101
B   0.333956964   0.5   0.0836062
B   0.291666258   0.625000012   0.250021161
B   0.416666269   0.5   0.250021164
B   0.458333725   0.625000006   0.416645816
B   0.333333704   0.5   0.416645818
B   0.291172455   0.62497322   0.583269465
B   0.416217942   0.5   0.583177415
B   0.457881936   0.626550013   0.745755112
B   0.333724562   0.5   0.748841841
B   0.291219852   0.625046574   0.916925508
B   0.416146144   0.5   0.920261773
B   0.4589404   0.875007773   0.083791886
B   0.333943329   0.750007857   0.083384913
B   0.291666255   0.875000009   0.250021165
B   0.416666257   0.750000019   0.250021165
B   0.458333736   0.875000019   0.41664582
B   0.333333701   0.750000015   0.41664582
B   0.291186854   0.87497652   0.582992293
B   0.416218919   0.749900325   0.582707917
B   0.4581775   0.875301354   0.746244692
B   0.333114452   0.750446657   0.747997967
B   0.291231974   0.875080045   0.916190014
B   0.416137504   0.750266037   0.918229291
B   0.708829802   0.125064332   0.08329272
B   0.583891233   0.0   0.083748951
B   0.541666268   0.124999987   0.250021164
B   0.666666307   0.0   0.250021156
B   0.708333761   0.124999991   0.416645829
B   0.583333741   0.0   0.416645824
B   0.541206044   0.125085857   0.582333393
B   0.666127583   0.0   0.582641062
B   0.708696492   0.123994019   0.748287456
B   0.583217683   0.0   0.746472029
B   0.541542385   0.125247363   0.918001167
B   0.666527988   0.0   0.918392009
B   0.708834537   0.375135949   0.082965123
B   0.58393013   0.250013053   0.083980159
B   0.541666277   0.374999991   0.250021161
B   0.666666304   0.249999988   0.250021156
B   0.708333757   0.374999994   0.416645821
B   0.583333748   0.24999998   0.416645819
B   0.541190721   0.375124176   0.583921241
B   0.666078368   0.2500692   0.583396708
B   0.710788025   0.369774763   0.751133379
B   0.582663144   0.250234823   0.746140642
B   0.54068232   0.374316439   0.924268529
B   0.666996386   0.250519051   0.919226024
B   0.708834537   0.624864051   0.082965123
B   0.584016984   0.5   0.083811886
B   0.541666277   0.625000009   0.250021161
B   0.666666304   0.5   0.250021156
B   0.708333757   0.625000006   0.416645821
B   0.583333738   0.5   0.416645816
B   0.541190721   0.624875824   0.583921241
B   0.665979739   0.5   0.584334185
B   0.710788025   0.630225237   0.751133379
B   0.578175085   0.5   0.763091483
B   0.54068232   0.625683561   0.924268529
B   0.664558628   0.5   0.904791825
B   0.708829802   0.874935668   0.08329272
B   0.58393013   0.749986947   0.083980159
B   0.541666268   0.875000013   0.250021164
B   0.666666304   0.750000012   0.250021156
B   0.708333761   0.875000009   0.416645829
B   0.583333748   0.75000002   0.416645819
B   0.541206044   0.874914143   0.582333393
B   0.666078368   0.7499308   0.583396708
B   0.708696492   0.876005981   0.748287456
B   0.582663144   0.749765177   0.746140642
B   0.541542385   0.874752637   0.918001167
B   0.666996386   0.749480949   0.919226024
B   0.958821893   0.125018271   0.082801672
B   0.833798275   0.0   0.082981916
B   0.79166631   0.124999992   0.250021153
B   0.916666295   0.0   0.250021162
B   0.958333726   0.124999979   0.416645818
B   0.83333376   0.0   0.416645837
B   0.791058467   0.125017531   0.583332486
B   0.916061098   0.0   0.58352756
B   0.959360744   0.124641569   0.749541226
B   0.834112217   0.0   0.749257908
B   0.791415783   0.124945761   0.917948616
B   0.9163227   0.0   0.917065307
B   0.958832035   0.375020984   0.082756916
B   0.833800487   0.250079467   0.082870045
B   0.791666315   0.374999991   0.250021158
B   0.916666295   0.249999973   0.25002116
B   0.958333718   0.374999977   0.416645816
B   0.833333757   0.249999977   0.41664583
B   0.791011045   0.375020969   0.583903049
B   0.916043988   0.250005292   0.58362273
B   0.959070136   0.374875717   0.749320112
B   0.834904998   0.24865254   0.748332249
B   0.790799708   0.374635299   0.917599909
B   0.916208748   0.24991415   0.917203681
B   0.958832035   0.624979016   0.082756916
B   0.833800608   0.5   0.082773291
B   0.791666315   0.625000009   0.250021158
B   0.916666298   0.5   0.250021159
B   0.958333718   0.625000023   0.416645816
B   0.833333758   0.5   0.416645824
B   0.791011045   0.624979031   0.583903049
B   0.91603045   0.5   0.58374174
B   0.959070136   0.625124283   0.749320112
B   0.8340491   0.5   0.748437338
B   0.790799708   0.625364701   0.917599909
B   0.915859762   0.5   0.916512341
B   0.958821893   0.874981729   0.082801672
B   0.833800487   0.749920533   0.082870045
B   0.79166631   0.875000008   0.250021153
B   0.916666295   0.750000027   0.25002116
B   0.958333726   0.875000021   0.416645818
B   0.833333757   0.750000023   0.41664583
B   0.791058467   0.874982469   0.583332486
B   0.916043988   0.749994708   0.58362273
B   0.959360744   0.875358431   0.749541226
B   0.834904998   0.75134746   0.748332249
B   0.791415783   0.875054239   0.917948616
B   0.916208748   0.75008585   0.917203681
N   0.208266342   0.125000008   0.250044847
N   0.083266387   0.0   0.250044881
N   0.042286883   0.125001523   0.082882607
N   0.167286905   0.0   0.082827116
N   0.207708822   0.124999682   0.583286023
N   0.082715905   0.0   0.583556223
N   0.041733659   0.124999985   0.416622106
N   0.166733642   0.0   0.416622112
N   0.207794906   0.124972393   0.916293769
N   0.082913491   0.0   0.916691795
N   0.042598744   0.124872769   0.74971005
N   0.167042822   0.0   0.749737806
N   0.208266332   0.375   0.250044851
N   0.083266391   0.249999993   0.250044862
N   0.042301716   0.375002057   0.082883613
N   0.167294963   0.250002525   0.08287986
N   0.207689086   0.375000636   0.583440611
N   0.08270752   0.249999735   0.583597056
N   0.041733677   0.374999984   0.416622107
N   0.166733643   0.249999991   0.416622112
N   0.20779221   0.374996714   0.916669116
N   0.082877748   0.25002758   0.916749841
N   0.042408796   0.374996802   0.749634982
N   0.167074806   0.250028736   0.749656996
N   0.208266332   0.625   0.250044851
N   0.083266392   0.5   0.250044859
N   0.042301716   0.624997943   0.082883613
N   0.167303325   0.5   0.082920231
N   0.207689086   0.624999364   0.583440611
N   0.082698089   0.5   0.583660197
N   0.041733677   0.625000016   0.416622107
N   0.166733638   0.5   0.416622115
N   0.20779221   0.625003286   0.916669116
N   0.082856741   0.5   0.916737397
N   0.042408796   0.625003198   0.749634982
N   0.167067092   0.5   0.749866699
N   0.208266342   0.874999992   0.250044847
N   0.083266391   0.750000007   0.250044862
N   0.042286883   0.874998477   0.082882607
N   0.167294963   0.749997475   0.08287986
N   0.207708822   0.875000318   0.583286023
N   0.08270752   0.750000265   0.583597056
N   0.041733659   0.875000015   0.416622106
N   0.166733643   0.750000009   0.416622112
N   0.207794906   0.875027607   0.916293769
N   0.082877748   0.74997242   0.916749841
N   0.042598744   0.875127231   0.74971005
N   0.167074806   0.749971264   0.749656996
N   0.458266378   0.125000005   0.250044863
N   0.33326637   0.0   0.250044867
N   0.292281528   0.124999216   0.083129991
N   0.417267157   0.0   0.083635205
N   0.45773405   0.125005314   0.581884662
N   0.332717767   0.0   0.582475164
N   0.291733627   0.125000014   0.416622136
N   0.416733665   0.0   0.416622118
N   0.457833913   0.124988872   0.917427996
N   0.33282946   0.0   0.916273845
N   0.29148045   0.124715687   0.74893868
N   0.416361958   0.0   0.747443394
N   0.458266377   0.375000027   0.250044864
N   0.333266366   0.250000003   0.250044874
N   0.292296033   0.375000605   0.083370182
N   0.417272422   0.249977122   0.084110275
N   0.457692573   0.375014465   0.582748991
N   0.332696449   0.250006269   0.582681316
N   0.291733646   0.374999986   0.416622131
N   0.416733654   0.250000002   0.416622121
N   0.457328154   0.374583867   0.921696106
N   0.332669481   0.249867544   0.916934362
N   0.291697238   0.374917131   0.749042733
N   0.41573437   0.248668462   0.745745879
N   0.458266377   0.624999973   0.250044864
N   0.333266374   0.5   0.250044874
N   0.292296033   0.624999395   0.083370182
N   0.417286958   0.5   0.084483623
N   0.457692573   0.624985535   0.582748991
N   0.33267912   0.5   0.582988679
N   0.291733646   0.625000014   0.416622131
N   0.416733666   0.5   0.416622117
N   0.457328154   0.625416133   0.921696106
N   0.332713562   0.5   0.917806123
N   0.291697238   0.625082869   0.749042733
N   0.416359584   0.5   0.747883262
N   0.458266378   0.874999995   0.250044863
N   0.333266366   0.749999997   0.250044874
N   0.292281528   0.875000784   0.083129991
N   0.417272422   0.750022878   0.084110275
N   0.45773405   0.874994686   0.581884662
N   0.332696449   0.749993731   0.582681316
N   0.291733627   0.874999986   0.416622136
N   0.416733654   0.749999998   0.416622121
N   0.457833913   0.875011128   0.917427996
N   0.332669481   0.750132456   0.916934362
N   0.29148045   0.875284313   0.74893868
N   0.41573437   0.751331538   0.745745879
N   0.708266388   0.124999997   0.250044835
N   0.583266356   0.0   0.250044858
N   0.542261982   0.124974575   0.084148426
N   0.667257872   0.0   0.083733204
N   0.707753504   0.125003118   0.582745752
N   0.582767393   0.0   0.581782749
N   0.541733625   0.124999996   0.416622121
N   0.666733652   0.0   0.416622111
N   0.708121426   0.124547477   0.918941319
N   0.582916796   0.0   0.917600466
N   0.541474994   0.124166455   0.745504564
N   0.667018177   0.0   0.747709068
N   0.708266364   0.374999988   0.250044842
N   0.583266356   0.250000006   0.250044855
N   0.542262731   0.374935314   0.084771818
N   0.667262632   0.249992293   0.083766305
N   0.707738674   0.375020752   0.583759169
N   0.582768832   0.249977444   0.582605916
N   0.541733631   0.375000029   0.416622116
N   0.666733649   0.250000004   0.416622103
N   0.708609069   0.373329305   0.918362146
N   0.582847975   0.250024222   0.920561095
N   0.539493803   0.371178216   0.744656728
N   0.667268232   0.247495917   0.748358125
N   0.708266364   0.625000012   0.250044842
N   0.583266346   0.5   0.250044852
N   0.542262731   0.625064686   0.084771818
N   0.667304493   0.5   0.083956021
N   0.707738674   0.624979248   0.583759169
N   0.582738866   0.5   0.583626605
N   0.541733631   0.624999971   0.416622116
N   0.666733646   0.5   0.416622098
N   0.708609069   0.626670695   0.918362146
N   0.581279981   0.5   0.931927689
N   0.539493803   0.628821784   0.744656728
N   0.708266388   0.875000003   0.250044835
N   0.583266356   0.749999994   0.250044855
N   0.542261982   0.875025425   0.084148426
N   0.667262632   0.750007707   0.083766305
N   0.707753504   0.874996882   0.582745752
N   0.582768832   0.750022556   0.582605916
N   0.541733625   0.875000004   0.416622121
N   0.666733649   0.749999996   0.416622103
N   0.708121426   0.875452523   0.918941319
N   0.582847975   0.749975778   0.920561095
N   0.541474994   0.875833545   0.745504564
N   0.667268232   0.752504083   0.748358125
N   0.958266347   0.124999972   0.250044866
N   0.833266371   0.0   0.250044859
N   0.792270958   0.125002645   0.08327855
N   0.917276359   0.0   0.083032884
N   0.957723513   0.124999044   0.583448437
N   0.832736993   0.0   0.583149291
N   0.791733669   0.125   0.416622143
N   0.916733627   0.0   0.416622114
N   0.9580656   0.124943196   0.917097359
N   0.833191029   0.0   0.917456705
N   0.792640107   0.124436586   0.748821222
N   0.917710124   0.0   0.749418231
N   0.958266347   0.374999988   0.250044864
N   0.833266364   0.249999982   0.250044854
N   0.792300959   0.375009331   0.083149819
N   0.917290951   0.250006682   0.08301481
N   0.957714463   0.375000311   0.583551548
N   0.832732934   0.249998689   0.583351809
N   0.791733667   0.374999996   0.41662213
N   0.916733624   0.249999969   0.416622111
N   0.957929115   0.374998639   0.916849582
N   0.833232153   0.249570786   0.91810155
N   0.794018477   0.372867529   0.747564316
N   0.918179586   0.249311154   0.748981294
N   0.958266347   0.625000012   0.250044864
N   0.833266368   0.5   0.250044856
N   0.792300959   0.624990669   0.083149819
N   0.917305436   0.5   0.08294994
N   0.957714463   0.624999689   0.583551548
N   0.832731246   0.5   0.583626171
N   0.791733667   0.625000004   0.41662213
N   0.916733625   0.5   0.41662211
N   0.957929115   0.625001361   0.916849582
N   0.832945974   0.5   0.916530356
N   0.794018477   0.627132471   0.747564316
N   0.917634686   0.5   0.748986149
N   0.958266347   0.875000028   0.250044866
N   0.833266364   0.750000018   0.250044854
N   0.792270958   0.874997355   0.08327855
N   0.917290951   0.749993318   0.08301481
N   0.957723513   0.875000956   0.583448437
N   0.832732934   0.750001311   0.583351809
N   0.791733669   0.875   0.416622143
N   0.916733624   0.750000031   0.416622111
N   0.9580656   0.875056804   0.917097359
N   0.833232153   0.750429214   0.91810155
N   0.792640107   0.875563414   0.748821222
N   0.918179586   0.750688846   0.748981294
C   0.669098112   0.5   0.759528
C   0.624201484   0.5   0.829378256
