&CONTROL
calculation = 'scf'
restart_mode = 'from_scratch'
prefix = 'h-BN'
pseudo_dir = '/home/maruachi/ONCV_PP'
outdir = './out/'
wf_collect = .FALSE.
verbosity = 'high'
/
&SYSTEM
ibrav = 0
nat = 385
ntyp = 3
ecutwfc = 85
nosym = .true.
occupations = 'fixed'
nspin = 2
tot_magnetization = 2.0
nbnd = 820
/
&ELECTRONS
electron_maxstep = 400
conv_thr = 1.0d-7
mixing_mode = 'plain'
mixing_beta = 0.7
diagonalization = 'david'
diago_full_acc = .True.
startingpot = 'atomic'
startingwfc = 'atomic+random'
/
ATOMIC_SPECIES
B   10.8110  B_ONCV_PBE-1.0.upf
N   14.5341  N_ONCV_PBE-1.0.upf
C   14.5341  C_ONCV_PBE-1.0.upf
CELL_PARAMETERS angstrom
17.3593340     0.0000000     0.0000000
 0.0000000    10.0351185     0.0000000
 0.0000000     0.0000000    19.6549149
K_POINTS gamma
